%%MatrixMarket matrix coordinate real general
36 36 1296
1 1 1.428245924710e+00
1 2 -6.680959997063e-01
1 3 -7.481388040588e-02
1 4 -8.468109028166e-02
1 5 7.178385029011e-02
1 6 -1.595613696130e-02
1 7 -4.894802629307e-03
1 8 5.594408987655e-04
1 9 -1.262910692139e-03
1 10 -3.063935909215e-04
1 11 1.585713303738e-04
1 12 2.020797792990e-06
1 13 -5.526435712100e-05
1 14 2.327813674230e-02
1 15 9.064228262230e-03
1 16 2.409984845611e-03
1 17 -5.408277990837e-04
1 18 -4.815957714883e-04
1 19 1.436563496007e-03
1 20 -1.880050214838e-03
1 21 -2.182150070467e-04
1 22 5.460217850206e-05
1 23 -1.734213106579e-02
1 24 -2.023596648248e-03
1 25 1.642913473596e-03
1 26 -9.816277901621e-03
1 27 2.014085360207e-04
1 28 5.992087420665e-04
1 29 -7.623967482679e-04
1 30 6.235291618181e-03
1 31 3.551276994695e-05
1 32 -1.064903623729e-05
1 33 -7.044392344113e-06
1 34 -1.129599945528e-02
1 35 5.055621648284e-03
1 36 7.835644424049e-03
2 1 -6.680959997063e-01
2 2 3.125228651661e-01
2 3 3.499796499229e-02
2 4 3.961309296485e-02
2 5 -3.357816583539e-02
2 6 7.471655654697e-03
2 7 2.290829745112e-03
2 8 -2.616775091426e-04
2 9 5.868590194966e-04
2 10 1.440687466486e-04
2 11 -7.405756524959e-05
2 12 -9.565262245465e-07
2 13 2.546421806160e-05
2 14 -1.088253076202e-02
2 15 -4.234882674857e-03
2 16 -1.126908493841e-03
2 17 2.529291721657e-04
2 18 2.261687143613e-04
2 19 -6.691516244326e-04
2 20 8.811228384955e-04
2 21 1.022800259234e-04
2 22 -2.638202787197e-05
2 23 8.127237058335e-03
2 24 9.261469245301e-04
2 25 -7.661986849534e-04
2 26 4.572568039675e-03
2 27 -9.266716830414e-05
2 28 -2.783608969078e-04
2 29 3.574549856840e-04
2 30 -2.919970689926e-03
2 31 -1.674192506973e-05
2 32 4.697850416582e-06
2 33 3.006752709811e-06
2 34 5.295877920498e-03
2 35 -2.352359032172e-03
2 36 -3.665258449375e-03
3 1 -7.481388040587e-02
3 2 3.499796499229e-02
3 3 3.919780029714e-03
3 4 4.436368876311e-03
3 5 -3.759909204910e-03
3 6 8.389979296570e-04
3 7 2.565803924944e-04
3 8 -2.907069547875e-05
3 9 6.439081248139e-05
3 10 1.634327655966e-05
3 11 -8.242873592745e-06
3 12 -1.255179103345e-07
3 13 2.722770040021e-06
3 14 -1.216895926595e-03
3 15 -4.728104453416e-04
3 16 -1.261279216039e-04
3 17 2.828612238440e-05
3 18 2.563506744699e-05
3 19 -7.416011602845e-05
3 20 9.916067956928e-05
3 21 1.150310952941e-05
3 22 -3.236937026231e-06
3 23 9.140098813376e-04
3 24 9.855673530396e-05
3 25 -8.514300425211e-05
3 26 5.072827620836e-04
3 27 -1.007917063084e-05
3 28 -3.066888182179e-05
3 29 4.023529102770e-05
3 30 -3.277877312740e-04
3 31 -1.886436570391e-06
3 32 4.555152974556e-07
3 33 2.360855511571e-07
3 34 5.959071358436e-04
3 35 -2.603659849317e-04
3 36 -4.104242298035e-04
4 1 -8.468109028166e-02
4 2 3.961309296485e-02
4 3 4.436368876313e-03
4 4 5.021457061471e-03
4 5 -4.256156680222e-03
4 6 9.484797983280e-04
4 7 2.902898023607e-04
4 8 -3.262808674248e-05
4 9 7.456953315788e-05
4 10 1.840470040894e-05
4 11 -9.318468761690e-06
4 12 -1.683628728481e-07
4 13 3.226682678464e-06
4 14 -1.377102094732e-03
4 15 -5.353009937888e-04
4 16 -1.427955855700e-04
4 17 3.192663480484e-05
4 18 2.864619870811e-05
4 19 -8.412126859372e-05
4 20 1.123673895774e-04
4 21 1.298117859067e-05
4 22 -3.394793644591e-06
4 23 1.035235981667e-03
4 24 1.114704999876e-04
4 25 -9.439250608478e-05
4 26 5.731806406761e-04
4 27 -1.151957361506e-05
4 28 -3.477845816668e-05
4 29 4.406292386672e-05
4 30 -3.712602048160e-04
4 31 -2.095787203338e-06
4 32 5.560471168474e-07
4 33 5.071225614856e-07
4 34 6.752133891157e-04
4 35 -2.940475109183e-04
4 36 -4.645513998582e-04
5 1 7.178385029011e-02
5 2 -3.357816583539e-02
5 3 -3.759909204905e-03
5 4 -4.256156680222e-03
5 5 3.608972899018e-03
5 6 -8.013379420413e-04
5 7 -2.469796485216e-04
5 8 2.706062103597e-05
5 9 -6.647807693760e-05
5 10 -1.540073844592e-05
5 11 8.110402749908e-06
5 12 3.014359229916e-07
5 13 -3.076436075299e-06
5 14 1.169347971455e-03
5 15 4.552020284891e-04
5 16 1.207033075484e-04
5 17 -2.631634701536e-05
5 18 -2.345944404696e-05
5 19 7.175517160272e-05
5 20 -9.399285376777e-05
5 21 -9.811056964154e-06
5 22 2.371371987935e-06
5 23 -8.741541099773e-04
5 24 -9.486352654314e-05
5 25 8.847272779833e-05
5 26 -4.880515426201e-04
5 27 8.698228976534e-06
5 28 3.037916794792e-05
5 29 -4.184277575159e-05
5 30 3.139696632691e-04
5 31 1.964176567219e-06
5 32 -7.175134882215e-07
5 33 -1.941625344185e-07
5 34 -5.713177440633e-04
5 35 2.503701983215e-04
5 36 3.938147324962e-04
6 1 -1.595613696132e-02
6 2 7.471655654696e-03
6 3 8.389979296572e-04
6 4 9.484797983293e-04
6 5 -8.013379420324e-04
6 6 1.904344581763e-04
6 7 5.616005613363e-05
6 8 -5.811167466944e-06
6 9 8.334770014565e-06
6 10 4.574340312018e-06
6 11 -1.575169758055e-06
6 12 -7.938348029228e-08
6 13 4.267174700222e-08
6 14 -2.499659627857e-04
6 15 -9.323063447290e-05
6 16 -2.629294805521e-05
6 17 5.837902471294e-06
6 18 6.703548434354e-06
6 19 -1.162785369399e-05
6 20 2.365269472342e-05
6 21 2.643281931294e-06
6 22 -1.893879435172e-06
6 23 2.174012138973e-04
6 24 -9.431478079636e-06
6 25 -1.485697930803e-05
6 26 7.954370471218e-05
6 27 1.347138764984e-07
6 28 -3.746206723656e-06
6 29 9.818608934342e-06
6 30 -7.475175793967e-05
6 31 -5.854212371450e-07
6 32 -2.882261668684e-07
6 33 -3.660913369084e-07
6 34 1.447870627996e-04
6 35 -3.689683194629e-05
6 36 -8.745769089466e-05
7 1 -4.894802629299e-03
7 2 2.290829745110e-03
7 3 2.565803924789e-04
7 4 2.902898023581e-04
7 5 -2.469796485214e-04
7 6 5.616005615675e-05
7 7 1.924953880274e-05
7 8 -1.729433722940e-06
7 9 5.413401761769e-06
7 10 1.276732335092e-06
7 11 -7.930340917908e-07
7 12 -1.748687485666e-07
7 13 3.334157305094e-07
7 14 -7.908823682170e-05
7 15 -2.998584896467e-05
7 16 -7.472816785894e-06
7 17 9.559154121389e-07
7 18 1.281527728685e-06
7 19 -3.762966750067e-06
7 20 5.577663497923e-06
7 21 -6.506332948224e-07
7 22 -1.385171279058e-07
7 23 6.303810254638e-05
7 24 -4.491442394079e-06
7 25 -1.703368614123e-05
7 26 2.591025994749e-05
7 27 1.832043777749e-06
7 28 -2.052406993329e-06
7 29 1.016261114037e-05
7 30 -2.213907484644e-05
7 31 -5.031205332008e-07
7 32 1.510554981839e-07
7 33 -6.056288705649e-07
7 34 4.391759569226e-05
7 35 -1.181608858061e-05
7 36 -2.685062945618e-05
8 1 5.594408987539e-04
8 2 -2.616775091428e-04
8 3 -2.907069547279e-05
8 4 -3.262808674123e-05
8 5 2.706062103821e-05
8 6 -5.811167476624e-06
8 7 -1.729433730386e-06
8 8 2.306768725204e-06
8 9 2.382493577821e-06
8 10 -3.426352108038e-08
8 11 3.388519111017e-08
8 12 -2.696264927862e-07
8 13 2.474633828209e-07
8 14 1.137765954398e-05
8 15 4.917391741351e-06
8 16 1.207028187836e-06
8 17 -1.195901782074e-06
8 18 -8.581141218646e-07
8 19 1.387514688578e-06
8 20 -5.706334230847e-07
8 21 -1.165043492901e-06
8 22 2.929746360903e-07
8 23 -1.124299225528e-06
8 24 -1.010813409535e-05
8 25 -1.971697842667e-06
8 26 -1.228768880040e-05
8 27 1.164974186620e-06
8 28 2.558286782862e-07
8 29 1.399422194951e-06
8 30 1.224233612598e-06
8 31 -5.164795350714e-08
8 32 1.658608943971e-07
8 33 -1.754699828141e-08
8 34 9.135965510581e-07
8 35 7.570131224716e-06
8 36 3.090793318242e-06
9 1 -1.262910692180e-03
9 2 5.868590195001e-04
9 3 6.439081248455e-05
9 4 7.456953316535e-05
9 5 -6.647807691340e-05
9 6 8.334770015531e-06
9 7 5.413401682190e-06
9 8 2.382493605368e-06
9 9 1.152445711411e-05
9 10 -1.384327538900e-07
9 11 -4.265454311560e-07
9 12 -4.693794983531e-07
9 13 1.042022882418e-06
9 14 -2.074970723350e-05
9 15 -9.113069124749e-06
9 16 -1.500856947166e-06
9 17 -1.465146755238e-06
9 18 -2.039651467939e-06
9 19 -1.600451563536e-06
9 20 3.861668023851e-07
9 21 -2.319227523097e-06
9 22 1.454557586292e-06
9 23 1.697346274359e-05
9 24 -5.647259927419e-06
9 25 -1.047806895969e-05
9 26 2.269577927041e-06
9 27 1.951257815863e-06
9 28 -1.822081397239e-06
9 29 4.811373153845e-06
9 30 -6.073160489370e-06
9 31 -2.665984904853e-07
9 32 5.568838292702e-07
9 33 2.075080377433e-07
9 34 1.465242481240e-05
9 35 2.089818138322e-07
9 36 -6.924860814192e-06
10 1 -3.063935909244e-04
10 2 1.440687466488e-04
10 3 1.634327655985e-05
10 4 1.840470040934e-05
10 5 -1.540073844440e-05
10 6 4.574340311950e-06
10 7 1.276732330073e-06
10 8 -3.426351934523e-08
10 9 -1.384327537979e-07
10 10 1.808963840300e-07
10 11 -2.206192900437e-08
10 12 -1.559393279515e-08
10 13 -2.906871511538e-08
10 14 -3.952052411415e-06
10 15 -1.121016328494e-06
10 16 -4.320350531416e-07
10 17 5.336714287347e-08
10 18 1.940717162252e-07
10 19 1.587959729351e-07
10 20 6.471257979262e-07
10 21 1.171819098873e-08
10 22 -1.182306116790e-07
10 23 6.238762139649e-06
10 24 -3.146933805012e-06
10 25 -2.434500388374e-07
10 26 -1.226035096119e-06
10 27 2.658396759316e-07
10 28 1.582151049375e-07
10 29 4.345473527288e-07
10 30 -1.889498345863e-06
10 31 -3.410098009846e-08
10 32 -3.065902524345e-08
10 33 -4.555090158548e-08
10 34 4.502914971059e-06
10 35 1.099260840493e-06
10 36 -1.672542755857e-06
11 1 1.585713303775e-04
11 2 -7.405756524921e-05
11 3 -8.242873592427e-06
11 4 -9.318468762042e-06
11 5 8.110402747623e-06
11 6 -1.575169758581e-06
11 7 -7.930340845820e-07
11 8 3.388518826728e-08
11 9 -4.265454339361e-07
11 10 -2.206192918024e-08
11 11 6.586164670315e-08
11 12 2.512637968338e-08
11 13 -4.315674710030e-08
11 14 2.981488552876e-06
11 15 1.211389204152e-06
11 16 1.726810607549e-07
11 17 7.414281491072e-08
11 18 3.365434856939e-08
11 19 1.750838478294e-07
11 20 7.271458695476e-08
11 21 2.159136689056e-07
11 22 -3.617010601807e-08
11 23 -1.271247543380e-06
11 24 3.291904164841e-09
11 25 2.431153760723e-06
11 26 -1.472426377255e-06
11 27 -2.724944940056e-07
11 28 2.149896437969e-07
11 29 -1.410015928051e-06
11 30 5.285731305838e-07
11 31 5.995172234342e-08
11 32 -4.017987355836e-08
11 33 1.077625832210e-07
11 34 -1.061956556759e-06
11 35 7.430693360899e-07
11 36 8.735662060526e-07
12 1 2.020797793578e-06
12 2 -9.565262245702e-07
12 3 -1.255179103261e-07
12 4 -1.683628729135e-07
12 5 3.014359226412e-07
12 6 -7.938348031752e-08
12 7 -1.748687474387e-07
12 8 -2.696264932250e-07
12 9 -4.693794985869e-07
12 10 -1.559393281088e-08
12 11 2.512637966674e-08
12 12 4.570338224527e-08
12 13 -4.812564820572e-08
12 14 -1.697311262481e-07
12 15 -1.410582434328e-07
12 16 -8.222899610671e-08
12 17 1.875904316668e-07
12 18 1.180431913186e-07
12 19 -1.371990167574e-07
12 20 8.043060364275e-08
12 21 2.457019528473e-07
12 22 -4.617853033611e-08
12 23 -6.932730714738e-07
12 24 1.633005324717e-06
12 25 1.318255681002e-06
12 26 1.225500467535e-06
12 27 -3.027466213565e-07
12 28 3.575209782854e-08
12 29 -8.274298543530e-07
12 30 1.473367757540e-07
12 31 3.663940371167e-08
12 32 -3.547270040873e-08
12 33 5.293905942530e-08
12 34 -8.250857606257e-07
12 35 -8.465986297404e-07
12 36 9.240479259909e-09
13 1 -5.526435712181e-05
13 2 2.546421806140e-05
13 3 2.722770039500e-06
13 4 3.226682678552e-06
13 5 -3.076436074539e-06
13 6 4.267174796797e-08
13 7 3.334157281482e-07
13 8 2.474633839630e-07
13 9 1.042022885430e-06
13 10 -2.906871492907e-08
13 11 -4.315674728778e-08
13 12 -4.812564824172e-08
13 13 9.955687638674e-08
13 14 -1.031672807226e-06
13 15 -5.120216017388e-07
13 16 -1.673238671264e-08
13 17 -1.851167853291e-07
13 18 -2.216103479013e-07
13 19 -9.593570673928e-08
13 20 -1.138440134124e-07
13 21 -2.747690868279e-07
13 22 1.419415887582e-07
13 23 6.064622064014e-07
13 24 -5.696418219874e-07
13 25 -1.430545921716e-06
13 26 -2.471640351289e-08
13 27 2.460648698821e-07
13 28 -1.807370785360e-07
13 29 7.249245153658e-07
13 30 -2.385629730853e-07
13 31 -3.499800038590e-08
13 32 5.964968306256e-08
13 33 -9.216561209516e-09
13 34 7.576489166740e-07
13 35 1.276616855478e-07
13 36 -3.038868089258e-07
14 1 2.327813674230e-02
14 2 -1.088253076202e-02
14 3 -1.216895926592e-03
14 4 -1.377102094732e-03
14 5 1.169347971455e-03
14 6 -2.499659627911e-04
14 7 -7.908823682182e-05
14 8 1.137765954259e-05
14 9 -2.074970725116e-05
14 10 -3.952052412534e-06
14 11 2.981488554522e-06
14 12 -1.697311259930e-07
14 13 -1.031672807803e-06
14 14 3.942400747649e-04
14 15 1.576824962056e-04
14 16 3.971082882554e-05
14 17 -9.401650596381e-06
14 18 -7.694031035531e-06
14 19 2.827181872262e-05
14 20 -2.614044248711e-05
14 21 -3.205575548275e-06
14 22 3.685777728527e-07
14 23 -2.480277037263e-04
14 24 -7.447012615197e-05
14 25 4.413895076749e-05
14 26 -2.043647475344e-04
14 27 5.226561883676e-06
14 28 1.348588019816e-05
14 29 -1.982395349082e-05
14 30 9.361650855676e-05
14 31 6.642365465177e-07
14 32 -5.501648820774e-07
14 33 5.988002881388e-07
14 34 -1.562884825139e-04
14 35 1.112032407190e-04
14 36 1.278345641172e-04
15 1 9.064228262229e-03
15 2 -4.234882674857e-03
15 3 -4.728104453417e-04
15 4 -5.353009937887e-04
15 5 4.552020284893e-04
15 6 -9.323063447282e-05
15 7 -2.998584896555e-05
15 8 4.917391741667e-06
15 9 -9.113069124281e-06
15 10 -1.121016328466e-06
15 11 1.211389204147e-06
15 12 -1.410582434354e-07
15 13 -5.120216017562e-07
15 14 1.576824962058e-04
15 15 6.457462766748e-05
15 16 1.578355351164e-05
15 17 -3.958335233275e-06
15 18 -2.766285721057e-06
15 19 1.278027687729e-05
15 20 -9.187830825874e-06
15 21 -1.425970768340e-06
15 22 -1.869369008365e-07
15 23 -8.647876890777e-05
15 24 -4.314308675663e-05
15 25 1.814321051097e-05
15 26 -9.302234463554e-05
15 27 3.218821358390e-06
15 28 6.344694954713e-06
15 29 -7.071416460530e-06
15 30 3.420772165954e-05
15 31 1.687713287492e-07
15 32 -3.243772071348e-07
15 33 1.205968772899e-07
15 34 -5.243219630973e-05
15 35 5.211772009717e-05
15 36 4.981131012693e-05
16 1 2.409984845613e-03
16 2 -1.126908493841e-03
16 3 -1.261279216076e-04
16 4 -1.427955855704e-04
16 5 1.207033075481e-04
16 6 -2.629294804931e-05
16 7 -7.472816785262e-06
16 8 1.207028189303e-06
16 9 -1.500856928726e-06
16 10 -4.320350519818e-07
16 11 1.726810590326e-07
16 12 -8.222899637209e-08
16 13 -1.673238610687e-08
16 14 3.971082882545e-05
16 15 1.578355351183e-05
16 16 4.384289911708e-06
16 17 -1.333946609862e-06
16 18 -1.007299653191e-06
16 19 2.908762134403e-06
16 20 -3.498017211924e-06
16 21 -9.923960299658e-07
16 22 1.331514065863e-07
16 23 -2.749292884128e-05
16 24 -8.432383085446e-06
16 25 -1.862679081206e-06
16 26 -2.009791808383e-05
16 27 1.389089998005e-06
16 28 9.972672320850e-07
16 29 1.777185693493e-06
16 30 1.015403601019e-05
16 31 -9.438126833674e-08
16 32 4.644759309059e-08
16 33 -2.618064624442e-07
16 34 -1.671777033833e-05
16 35 1.101142264429e-05
16 36 1.322451008075e-05
17 1 -5.408277990834e-04
17 2 2.529291721657e-04
17 3 2.828612238598e-05
17 4 3.192663480469e-05
17 5 -2.631634701640e-05
17 6 5.837902468106e-06
17 7 9.559154153758e-07
17 8 -1.195901784073e-06
17 9 -1.465146764169e-06
17 10 5.336714232589e-08
17 11 7.414281561022e-08
17 12 1.875904317869e-07
17 13 -1.851167854780e-07
17 14 -9.401650597170e-06
17 15 -3.958335233338e-06
17 16 -1.333946608999e-06
17 17 1.017916003860e-06
17 18 6.915122648891e-07
17 19 -1.121718175111e-06
17 20 1.222809940846e-06
17 21 1.198263126423e-06
17 22 -2.194783107412e-07
17 23 4.183239843215e-06
17 24 7.706327909136e-06
17 25 6.138521428705e-06
17 26 8.649723154853e-06
17 27 -1.525880259512e-06
17 28 -2.677489254523e-08
17 29 -3.945028335451e-06
17 30 -1.876036215080e-06
17 31 1.793645650216e-07
17 32 -1.535164858119e-07
17 33 2.956188170209e-07
17 34 1.011567094915e-06
17 35 -5.368754113234e-06
17 36 -2.972158507666e-06
18 1 -4.815957714868e-04
18 2 2.261687143619e-04
18 3 2.563506744840e-05
18 4 2.864619870808e-05
18 5 -2.345944404889e-05
18 6 6.703548432459e-06
18 7 1.281527734366e-06
18 8 -8.581141243251e-07
18 9 -2.039651475193e-06
18 10 1.940717157582e-07
18 11 3.365434904709e-08
18 12 1.180431914096e-07
18 13 -2.216103479183e-07
18 14 -7.694031036833e-06
18 15 -2.766285721118e-06
18 16 -1.007299651808e-06
18 17 6.915122645732e-07
18 18 7.575681770773e-07
18 19 -4.355144951529e-07
18 20 1.041946172750e-06
18 21 7.618753414165e-07
18 22 -3.724338465923e-07
18 23 5.608807641739e-06
18 24 2.745791278516e-06
18 25 2.577276098682e-06
18 26 4.826420745504e-06
18 27 -7.174605943534e-07
18 28 1.422501801628e-07
18 29 -1.346448317831e-06
18 30 -2.013716587341e-06
18 31 7.077753761016e-08
18 32 -1.373996185117e-07
18 33 1.347856009697e-08
18 34 2.689035026751e-06
18 35 -2.840448635981e-06
18 36 -2.641828085752e-06
19 1 1.436563496007e-03
19 2 -6.691516244320e-04
19 3 -7.416011602986e-05
19 4 -8.412126859381e-05
19 5 7.175517160311e-05
19 6 -1.162785369158e-05
19 7 -3.762966751551e-06
19 8 1.387514689796e-06
19 9 -1.600451555846e-06
19 10 1.587959734125e-07
19 11 1.750838471762e-07
19 12 -1.371990168615e-07
19 13 -9.593570655161e-08
19 14 2.827181872296e-05
19 15 1.278027687736e-05
19 16 2.908762134008e-06
19 17 -1.121718175284e-06
19 18 -4.355144955651e-07
19 19 3.562483926465e-06
19 20 -9.209258176809e-07
19 21 -7.505726979632e-07
19 22 -2.128222847086e-07
19 23 -5.316690678391e-06
19 24 -2.002775259595e-05
19 25 9.948448537744e-07
19 26 -2.665158649263e-05
19 27 1.963519729557e-06
19 28 1.766775445502e-06
19 29 1.013380740777e-06
19 30 3.558613421183e-06
19 31 -1.205977967841e-07
19 32 -8.244172483164e-08
19 33 -1.846607626890e-07
19 34 -7.585854517351e-07
19 35 1.616824300007e-05
19 36 7.921046411323e-06
20 1 -1.880050214847e-03
20 2 8.811228384959e-04
20 3 9.916067957578e-05
20 4 1.123673895790e-04
20 5 -9.399285376485e-05
20 6 2.365269471274e-05
20 7 5.577663488111e-06
20 8 -5.706334226096e-07
20 9 3.861667705277e-07
20 10 6.471257959044e-07
20 11 7.271459027828e-08
20 12 8.043060413288e-08
20 13 -1.138440148018e-07
20 14 -2.614044248495e-05
20 15 -9.187830826253e-06
20 16 -3.498017213953e-06
20 17 1.222809943329e-06
20 18 1.041946175989e-06
20 19 -9.209258192101e-07
20 20 4.560681677036e-06
20 21 1.441621629987e-06
20 22 -3.472728402497e-07
20 23 3.224419942000e-05
20 24 -4.190266886566e-06
20 25 1.118191860236e-05
20 26 2.745485692531e-06
20 27 -1.187549631534e-06
20 28 5.906427658277e-07
20 29 -6.329287554317e-06
20 30 -1.047321972452e-05
20 31 2.142958455931e-07
20 32 -2.370123676572e-07
20 33 6.367714837760e-07
20 34 2.108010167546e-05
20 35 -3.191331692988e-07
20 36 -1.027532339221e-05
21 1 -2.182150070490e-04
21 2 1.022800259232e-04
21 3 1.150310953278e-05
21 4 1.298117859115e-05
21 5 -9.811056964476e-06
21 6 2.643281925733e-06
21 7 -6.506332939941e-07
21 8 -1.165043494959e-06
21 9 -2.319227540635e-06
21 10 1.171818987579e-08
21 11 2.159136704974e-07
21 12 2.457019530988e-07
21 13 -2.747690873406e-07
21 14 -3.205575548617e-06
21 15 -1.425970768519e-06
21 16 -9.923960295435e-07
21 17 1.198263127044e-06
21 18 7.618753425767e-07
21 19 -7.505726981690e-07
21 20 1.441621627302e-06
21 21 1.692814053438e-06
21 22 -2.903862113035e-07
21 23 1.879501014823e-06
21 24 7.584912520197e-06
21 25 1.168909844016e-05
21 26 5.349501803038e-06
21 27 -2.126268999532e-06
21 28 4.586397719796e-07
21 29 -7.172035339119e-06
21 30 -8.794322644890e-07
21 31 3.122104563670e-07
21 32 -2.460050661022e-07
21 33 5.515647625974e-07
21 34 -9.545590751118e-07
21 35 -3.666435177094e-06
21 36 -1.193772329948e-06
22 1 5.460217850082e-05
22 2 -2.638202787203e-05
22 3 -3.236937026730e-06
22 4 -3.394793644421e-06
22 5 2.371371988806e-06
22 6 -1.893879434167e-06
22 7 -1.385171307152e-07
22 8 2.929746373997e-07
22 9 1.454557589530e-06
22 10 -1.182306114793e-07
22 11 -3.617010621432e-08
22 12 -4.617853037295e-08
22 13 1.419415887530e-07
22 14 3.685777734804e-07
22 15 -1.869369008176e-07
22 16 1.331514059168e-07
22 17 -2.194783105652e-07
22 18 -3.724338465631e-07
22 19 -2.128222849180e-07
22 20 -3.472728387233e-07
22 21 -2.903862107289e-07
22 22 2.458734168485e-07
22 23 -1.665813718319e-06
22 24 7.337193858468e-07
22 25 -1.054855631437e-06
22 26 4.240793457074e-07
22 27 1.285177243067e-07
22 28 -2.707787843788e-07
22 29 3.213273352289e-07
22 30 4.299724369787e-07
22 31 -1.747443261323e-08
22 32 8.085053115161e-08
22 33 5.237226780891e-08
22 34 -8.451091512471e-07
22 35 -2.703764071867e-07
22 36 2.959725483015e-07
23 1 -1.734213106578e-02
23 2 8.127237058334e-03
23 3 9.140098813386e-04
23 4 1.035235981665e-03
23 5 -8.741541099843e-04
23 6 2.174012138948e-04
23 7 6.303810256938e-05
23 8 -1.124299234739e-06
23 9 1.697346273372e-05
23 10 6.238762139041e-06
23 11 -1.271247543299e-06
23 12 -6.932730714096e-07
23 13 6.064622069760e-07
23 14 -2.480277037315e-04
23 15 -8.647876890776e-05
23 16 -2.749292883582e-05
23 17 4.183239841034e-06
23 18 5.608807640278e-06
23 19 -5.316690676330e-06
23 20 3.224419940941e-05
23 21 1.879501009799e-06
23 22 -1.665813717730e-06
23 23 2.937396391047e-04
23 24 -8.254577314097e-05
23 25 8.466474985203e-06
23 26 8.776466472769e-06
23 27 4.607208076046e-06
23 28 1.162096190305e-06
23 29 -2.967404316156e-07
23 30 -9.499214989787e-05
23 31 -6.113652810166e-07
23 32 -5.590752002430e-07
23 33 1.155321179181e-06
23 34 2.068902782921e-04
23 35 1.086352696061e-05
23 36 -9.485115328653e-05
24 1 -2.023596648234e-03
24 2 9.261469245274e-04
24 3 9.855673530795e-05
24 4 1.114704999852e-04
24 5 -9.486352655419e-05
24 6 -9.431478089624e-06
24 7 -4.491442357975e-06
24 8 -1.010813411066e-05
24 9 -5.647259955378e-06
24 10 -3.146933806684e-06
24 11 3.291905379147e-09
24 12 1.633005325006e-06
24 13 -5.696418214505e-07
24 14 -7.447012616035e-05
24 15 -4.314308675669e-05
24 16 -8.432383076646e-06
24 17 7.706327906209e-06
24 18 2.745791277045e-06
24 19 -2.002775259286e-05
24 20 -4.190266904939e-06
24 21 7.584912512402e-06
24 22 7.337193863683e-07
24 23 -8.254577313756e-05
24 24 1.689855138520e-04
24 25 1.493578363224e-05
24 26 1.682177663535e-04
24 27 -1.840207100853e-05
24 28 -9.751488003611e-06
24 29 -2.028856061397e-05
24 30 1.554738423071e-05
24 31 1.672158424718e-06
24 32 8.218318379467e-08
24 33 1.504228493004e-06
24 34 -8.255798299462e-05
24 35 -1.098530174226e-04
24 36 -1.144293683176e-05
25 1 1.642913473593e-03
25 2 -7.661986849474e-04
25 3 -8.514300422569e-05
25 4 -9.439250608152e-05
25 5 8.847272778338e-05
25 6 -1.485697935091e-05
25 7 -1.703368609640e-05
25 8 -1.971697874260e-06
25 9 -1.047806909959e-05
25 10 -2.434500478439e-07
25 11 2.431153772255e-06
25 12 1.318255682905e-06
25 13 -1.430545924449e-06
25 14 4.413895075624e-05
25 15 1.814321050973e-05
25 16 -1.862679068863e-06
25 17 6.138521429404e-06
25 18 2.577276104564e-06
25 19 9.948448558383e-07
25 20 1.118191856491e-05
25 21 1.168909843153e-05
25 22 -1.054855634549e-06
25 23 8.466475021355e-06
25 24 1.493578368221e-05
25 25 1.165340888322e-04
25 26 -2.694607596886e-05
25 27 -1.468714654532e-05
25 28 7.447244326923e-06
25 29 -6.982032277050e-05
25 30 -5.876754145375e-07
25 31 2.849698547791e-06
25 32 -1.844207934428e-06
25 33 6.034443613606e-06
25 34 -4.863087205789e-06
25 35 1.296421951108e-05
25 36 9.173092579462e-06
26 1 -9.816277901624e-03
26 2 4.572568039675e-03
26 3 5.072827620832e-04
26 4 5.731806406765e-04
26 5 -4.880515426180e-04
26 6 7.954370471304e-05
26 7 2.591025994059e-05
26 8 -1.228768879778e-05
26 9 2.269577930258e-06
26 10 -1.226035095923e-06
26 11 -1.472426377309e-06
26 12 1.225500467511e-06
26 13 -2.471640366854e-08
26 14 -2.043647475329e-04
26 15 -9.302234463555e-05
26 16 -2.009791808546e-05
26 17 8.649723155483e-06
26 18 4.826420745912e-06
26 19 -2.665158649324e-05
26 20 2.745485695704e-06
26 21 5.349501804513e-06
26 22 4.240793455412e-07
26 23 8.776466472710e-06
26 24 1.682177663544e-04
26 25 -2.694607595849e-05
26 26 2.201980509519e-04
26 27 -1.466550851052e-05
26 28 -1.434607423090e-05
26 29 4.443355077710e-06
26 30 -1.724549033964e-05
26 31 6.223878663706e-07
26 32 5.765084004552e-07
26 33 -3.551717822139e-07
26 34 -1.956762530257e-05
26 35 -1.355591351097e-04
26 36 -5.422417682611e-05
27 1 2.014085360113e-04
27 2 -9.266716830359e-05
27 3 -1.007917063323e-05
27 4 -1.151957361382e-05
27 5 8.698228982991e-06
27 6 1.347138812913e-07
27 7 1.832043756464e-06
27 8 1.164974195640e-06
27 9 1.951257832477e-06
27 10 2.658396769638e-07
27 11 -2.724944947696e-07
27 12 -3.027466215267e-07
27 13 2.460648695925e-07
27 14 5.226561888519e-06
27 15 3.218821358460e-06
27 16 1.389089992935e-06
27 17 -1.525880257830e-06
27 18 -7.174605935515e-07
27 19 1.963519727809e-06
27 20 -1.187549620844e-06
27 21 -2.126268995024e-06
27 22 1.285177240268e-07
27 23 4.607208073887e-06
27 24 -1.840207100880e-05
27 25 -1.468714651676e-05
27 26 -1.466550850997e-05
27 27 3.578343430216e-06
27 28 1.431858274972e-07
27 29 9.882289712070e-06
27 30 -6.083218280101e-07
27 31 -5.025149992151e-07
27 32 2.098861660660e-07
27 33 -8.133933556955e-07
27 34 7.157938458637e-06
27 35 9.957972257761e-06
27 36 1.118902612805e-06
28 1 5.992087420712e-04
28 2 -2.783608969081e-04
28 3 -3.066888182188e-05
28 4 -3.477845816742e-05
28 5 3.037916794515e-05
28 6 -3.746206723878e-06
28 7 -2.052406984305e-06
28 8 2.558286750051e-07
28 9 -1.822081398639e-06
28 10 1.582151048566e-07
28 11 2.149896436021e-07
28 12 3.575209781866e-08
28 13 -1.807370782384e-07
28 14 1.348588019618e-05
28 15 6.344694954746e-06
28 16 9.972672341512e-07
28 17 -2.677489348768e-08
28 18 1.422501794256e-07
28 19 1.766775446332e-06
28 20 5.906427620653e-07
28 21 4.586397700126e-07
28 22 -2.707787840672e-07
28 23 1.162096189585e-06
28 24 -9.751488006095e-06
28 25 7.447244311601e-06
28 26 -1.434607423066e-05
28 27 1.431858289926e-07
28 28 1.394845197004e-06
28 29 -3.510168384472e-06
28 30 6.301580892864e-07
28 31 9.217568988136e-08
28 32 -1.873361264055e-07
28 33 2.362749238532e-07
28 34 1.632111017604e-06
28 35 8.695314989093e-06
28 36 3.318204902370e-06
29 1 -7.623967483468e-04
29 2 3.574549856852e-04
29 3 4.023529102978e-05
29 4 4.406292387530e-05
29 5 -4.184277570741e-05
29 6 9.818608931196e-06
29 7 1.016261099746e-05
29 8 1.399422247464e-06
29 9 4.811373166124e-06
29 10 4.345473534060e-07
29 11 -1.410015923899e-06
29 12 -8.274298540504e-07
29 13 7.249245101527e-07
29 14 -1.982395345796e-05
29 15 -7.071416461073e-06
29 16 1.777185659409e-06
29 17 -3.945028319519e-06
29 18 -1.346448304991e-06
29 19 1.013380726874e-06
29 20 -6.329287493462e-06
29 21 -7.172035306591e-06
29 22 3.213273297351e-07
29 23 -2.967404171056e-07
29 24 -2.028856056858e-05
29 25 -6.982032251238e-05
29 26 4.443355072980e-06
29 27 9.882289684768e-06
29 28 -3.510168383397e-06
29 29 4.291922486205e-05
29 30 -3.386898104758e-07
29 31 -1.807770684339e-06
29 32 1.007196909935e-06
29 33 -3.794768886464e-06
29 34 7.569183217794e-06
29 35 -2.642622811251e-07
29 36 -4.254732832398e-06
30 1 6.235291618180e-03
30 2 -2.919970689926e-03
30 3 -3.277877312750e-04
30 4 -3.712602048158e-04
30 5 3.139696632706e-04
30 6 -7.475175793783e-05
30 7 -2.213907485121e-05
30 8 1.224233614889e-06
30 9 -6.073160483518e-06
30 10 -1.889498345497e-06
30 11 5.285731302087e-07
30 12 1.473367756859e-07
30 13 -2.385629730814e-07
30 14 9.361650855784e-05
30 15 3.420772165958e-05
30 16 1.015403600905e-05
30 17 -1.876036214796e-06
30 18 -2.013716587318e-06
30 19 3.558613420836e-06
30 20 -1.047321972186e-05
30 21 -8.794322635189e-07
30 22 4.299724369931e-07
30 23 -9.499214989900e-05
30 24 1.554738422962e-05
30 25 -5.876754095302e-07
30 26 -1.724549033933e-05
30 27 -6.083218274285e-07
30 28 6.301580887137e-07
30 29 -3.386898002750e-07
30 30 3.175176091471e-05
30 31 1.690124695713e-07
30 32 1.231525185604e-07
30 33 -3.665382193839e-07
30 34 -6.553562798473e-05
30 35 5.308500267055e-06
30 36 3.414068453181e-05
31 1 3.551276994695e-05
31 2 -1.674192506968e-05
31 3 -1.886436569530e-06
31 4 -2.095787203266e-06
31 5 1.964176567016e-06
31 6 -5.854212384784e-07
31 7 -5.031205324807e-07
31 8 -5.164795414919e-08
31 9 -2.665984948844e-07
31 10 -3.410098037714e-08
31 11 5.995172272087e-08
31 12 3.663940377230e-08
31 13 -3.499800049621e-08
31 14 6.642365463431e-07
31 15 1.687713287067e-07
31 16 -9.438126813050e-08
31 17 1.793645651278e-07
31 18 7.077753785592e-08
31 19 -1.205977967957e-07
31 20 2.142958447505e-07
31 21 3.122104562696e-07
31 22 -1.747443273740e-08
31 23 -6.113652798313e-07
31 24 1.672158426499e-06
31 25 2.849698549126e-06
31 26 6.223878660244e-07
31 27 -5.025150002381e-07
31 28 9.217569035880e-08
31 29 -1.807770692308e-06
31 30 1.690124693599e-07
31 31 8.589467829948e-08
31 32 -3.810849688018e-08
31 33 1.541381174813e-07
31 34 -8.843801234569e-07
31 35 -5.315989482083e-07
31 36 1.960359035184e-07
32 1 -1.064903623818e-05
32 2 4.697850416641e-06
32 3 4.555152975253e-07
32 4 5.560471169671e-07
32 5 -7.175134876839e-07
32 6 -2.882261669407e-07
32 7 1.510554964594e-07
32 8 1.658608950034e-07
32 9 5.568838292141e-07
32 10 -3.065902524768e-08
32 11 -4.017987349096e-08
32 12 -3.547270040253e-08
32 13 5.964968299411e-08
32 14 -5.501648816874e-07
32 15 -3.243772071441e-07
32 16 4.644759268677e-08
32 17 -1.535164856137e-07
32 18 -1.373996183446e-07
32 19 -8.244172500043e-08
32 20 -2.370123669584e-07
32 21 -2.460050657109e-07
32 22 8.085053107970e-08
32 23 -5.590752000118e-07
32 24 8.218318443082e-08
32 25 -1.844207931219e-06
32 26 5.765084003806e-07
32 27 2.098861656909e-07
32 28 -1.873361263716e-07
32 29 1.007196909573e-06
32 30 1.231525184288e-07
32 31 -3.810849678392e-08
32 32 5.095391147377e-08
32 33 -6.555870700774e-08
32 34 -1.947946973393e-07
32 35 -3.164376479741e-07
32 36 -6.145652005654e-08
33 1 -7.044392344542e-06
33 2 3.006752709862e-06
33 3 2.360855522799e-07
33 4 5.071225617069e-07
33 5 -1.941625346915e-07
33 6 -3.660913386083e-07
33 7 -6.056288697542e-07
33 8 -1.754699924485e-08
33 9 2.075080319089e-07
33 10 -4.555090195952e-08
33 11 1.077625837350e-07
33 12 5.293905950571e-08
33 13 -9.216561360887e-09
33 14 5.988002879075e-07
33 15 1.205968772272e-07
33 16 -2.618064621770e-07
33 17 2.956188171662e-07
33 18 1.347856043661e-08
33 19 -1.846607627069e-07
33 20 6.367714826526e-07
33 21 5.515647624744e-07
33 22 5.237226763848e-08
33 23 1.155321180802e-06
33 24 1.504228495431e-06
33 25 6.034443615518e-06
33 26 -3.551717826828e-07
33 27 -8.133933570925e-07
33 28 2.362749245019e-07
33 29 -3.794768897281e-06
33 30 -3.665382196690e-07
33 31 1.541381174842e-07
33 32 -6.555870713899e-08
33 33 3.729992680432e-07
33 34 2.534104871814e-07
33 35 8.930395763490e-08
33 36 -3.145994107232e-08
34 1 -1.129599945528e-02
34 2 5.295877920498e-03
34 3 5.959071358436e-04
34 4 6.752133891155e-04
34 5 -5.713177440645e-04
34 6 1.447870627994e-04
34 7 4.391759569621e-05
34 8 9.135965495233e-07
34 9 1.465242481134e-05
34 10 4.502914970989e-06
34 11 -1.061956556804e-06
34 12 -8.250857606226e-07
34 13 7.576489167993e-07
34 14 -1.562884825148e-04
34 15 -5.243219630972e-05
34 16 -1.671777033738e-05
34 17 1.011567094504e-06
34 18 2.689035026452e-06
34 19 -7.585854513662e-07
34 20 2.108010167369e-05
34 21 -9.545590760052e-07
34 22 -8.451091511206e-07
34 23 2.068902782920e-04
34 24 -8.255798299552e-05
34 25 -4.863087212537e-06
34 26 -1.956762530251e-05
34 27 7.157938459193e-06
34 28 1.632111017651e-06
34 29 7.569183216372e-06
34 30 -6.553562798448e-05
34 31 -8.843801236726e-07
34 32 -1.947946973665e-07
34 33 2.534104868931e-07
34 34 1.513305515530e-04
34 35 2.428345340959e-05
34 36 -6.174057467318e-05
35 1 5.055621648284e-03
35 2 -2.352359032172e-03
35 3 -2.603659849317e-04
35 4 -2.940475109183e-04
35 5 2.503701983214e-04
35 6 -3.689683194628e-05
35 7 -1.181608858050e-05
35 8 7.570131224675e-06
35 9 2.089818138609e-07
35 10 1.099260840493e-06
35 11 7.430693360847e-07
35 12 -8.465986297395e-07
35 13 1.276616855565e-07
35 14 1.112032407190e-04
35 15 5.211772009717e-05
35 16 1.101142264432e-05
35 17 -5.368754113246e-06
35 18 -2.840448635986e-06
35 19 1.616824300008e-05
35 20 -3.191331693318e-07
35 21 -3.666435177116e-06
35 22 -2.703764071851e-07
35 23 1.086352696061e-05
35 24 -1.098530174227e-04
35 25 1.296421951094e-05
35 26 -1.355591351097e-04
35 27 9.957972257786e-06
35 28 8.695314989093e-06
35 29 -2.642622812382e-07
35 30 5.308500267069e-06
35 31 -5.315989482185e-07
35 32 -3.164376479754e-07
35 33 8.930395762989e-08
35 34 2.428345340959e-05
35 35 8.456097685504e-05
35 36 2.797577341707e-05
36 1 7.835644424049e-03
36 2 -3.665258449375e-03
36 3 -4.104242298035e-04
36 4 -4.645513998582e-04
36 5 3.938147324962e-04
36 6 -8.745769089466e-05
36 7 -2.685062945625e-05
36 8 3.090793318249e-06
36 9 -6.924860814189e-06
36 10 -1.672542755857e-06
36 11 8.735662060501e-07
36 12 9.240479259911e-09
36 13 -3.038868089267e-07
36 14 1.278345641172e-04
36 15 4.981131012693e-05
36 16 1.322451008074e-05
36 17 -2.972158507671e-06
36 18 -2.641828085743e-06
36 19 7.921046411324e-06
36 20 -1.027532339219e-05
36 21 -1.193772329947e-06
36 22 2.959725483040e-07
36 23 -9.485115328654e-05
36 24 -1.144293683177e-05
36 25 9.173092579529e-06
36 26 -5.422417682611e-05
36 27 1.118902612809e-06
36 28 3.318204902369e-06
36 29 -4.254732832387e-06
36 30 3.414068453181e-05
36 31 1.960359035189e-07
36 32 -6.145652005612e-08
36 33 -3.145994106803e-08
36 34 -6.174057467319e-05
36 35 2.797577341707e-05
36 36 4.298900167829e-05
