%%MatrixMarket matrix coordinate real general
36 36 1296
1 1 1.552935251845e-05
1 2 2.188711872806e-04
1 3 1.959579748692e-05
1 4 -1.013910953350e-04
1 5 4.756009177280e-05
1 6 1.316112729581e-05
1 7 -3.996844167592e-06
1 8 1.328409599113e-06
1 9 -4.233585460022e-06
1 10 -3.126819076996e-06
1 11 -8.011245212319e-07
1 12 -1.410353075272e-07
1 13 1.329085280056e-06
1 14 -3.938104612938e-05
1 15 6.975846913245e-06
1 16 4.929655703993e-07
1 17 1.154160529646e-05
1 18 5.590622729926e-06
1 19 2.833140766264e-05
1 20 4.775322655590e-06
1 21 4.500418341391e-06
1 22 -1.022017674124e-05
1 23 1.929287805711e-05
1 24 2.077279161991e-05
1 25 -4.955747000441e-06
1 26 8.596705557418e-06
1 27 7.342540755843e-06
1 28 -4.507974981210e-06
1 29 -1.610887931256e-05
1 30 -2.420535659371e-05
1 31 2.956557434516e-06
1 32 -5.275945446539e-06
1 33 -8.837233460737e-07
1 34 1.031861209362e-05
1 35 -3.656754571489e-06
1 36 6.464026542895e-06
2 1 2.188711873096e-04
2 2 4.029839732136e-03
2 3 -1.769861383586e-06
2 4 -1.477136326334e-05
2 5 -8.972511133930e-06
2 6 2.614012973723e-04
2 7 1.743559843049e-06
2 8 2.729962551160e-05
2 9 -3.309698183353e-05
2 10 -5.735840091847e-05
2 11 2.137891404833e-06
2 12 1.069810490530e-05
2 13 6.090439948966e-06
2 14 -6.304095316410e-04
2 15 -5.349178803140e-05
2 16 2.351203755384e-04
2 17 -1.972904688848e-05
2 18 8.175459548797e-05
2 19 4.523382120097e-04
2 20 -4.276821727888e-05
2 21 2.141602545991e-04
2 22 6.155541276379e-05
2 23 2.953982626436e-04
2 24 3.361799442948e-04
2 25 -1.047886225541e-05
2 26 2.122295698265e-04
2 27 -7.181939189843e-05
2 28 -4.251517559294e-05
2 29 -2.525868615102e-04
2 30 -3.723092031562e-04
2 31 1.301306953105e-04
2 32 1.077918193499e-04
2 33 -7.868879594551e-07
2 34 1.582128730646e-04
2 35 -5.623301800191e-05
2 36 9.937344974880e-05
3 1 1.959579748664e-05
3 2 -1.769861382051e-06
3 3 3.709264007156e-03
3 4 9.187102905370e-06
3 5 -1.954893316258e-06
3 6 -1.518555714210e-06
3 7 -1.085975448184e-04
3 8 1.208163886195e-04
3 9 4.949890533216e-05
3 10 6.218343480552e-07
3 11 -4.123251430295e-05
3 12 2.058538923093e-05
3 13 -1.671436980420e-05
3 14 2.511875545672e-05
3 15 6.370059214877e-04
3 16 2.153046784120e-04
3 17 -8.541549993618e-05
3 18 -4.780448091999e-06
3 19 -3.071016673883e-05
3 20 5.165286889287e-04
3 21 2.299025930562e-04
3 22 7.459549848567e-06
3 23 -4.372422051882e-05
3 24 -3.673689618820e-05
3 25 -3.562425340352e-04
3 26 8.573637451149e-05
3 27 6.710497974910e-06
3 28 1.944065166270e-04
3 29 4.351266452057e-05
3 30 -1.005770424875e-04
3 31 -3.249928540289e-04
3 32 3.739057179418e-05
3 33 2.528376937458e-04
3 34 3.187589050752e-05
3 35 -1.194653445550e-05
3 36 2.105797443516e-05
4 1 -1.013910953352e-04
4 2 -1.477136326333e-05
4 3 9.187102905379e-06
4 4 3.716763806591e-03
4 5 4.153511954824e-06
4 6 5.071650779058e-05
4 7 7.173664131655e-05
4 8 -2.245925190855e-05
4 9 1.111781729698e-04
4 10 -2.101983547012e-06
4 11 1.994546345840e-05
4 12 1.208312628931e-05
4 13 -4.990801582562e-05
4 14 1.009446906055e-04
4 15 -1.573341340357e-04
4 16 2.125791411440e-04
4 17 -6.185042023921e-04
4 18 -3.152805136139e-05
4 19 -7.237452939853e-05
4 20 -4.802144137439e-05
4 21 7.091055540280e-05
4 22 5.582933996786e-04
4 23 -7.394380940148e-05
4 24 -4.022136619215e-05
4 25 5.066161322719e-06
4 26 -2.367391190279e-05
4 27 -4.201430964895e-04
4 28 2.413035736226e-05
4 29 3.601330131740e-05
4 30 9.201934390697e-05
4 31 -4.317101276686e-05
4 32 3.877853969173e-04
4 33 -7.166859098636e-05
4 34 -3.907234444132e-05
4 35 1.368992568411e-05
4 36 -2.421721394026e-05
5 1 4.756009177706e-05
5 2 -8.972511136379e-06
5 3 -1.954893316447e-06
5 4 4.153511954844e-06
5 5 3.423897551423e-03
5 6 3.276334179594e-05
5 7 -1.134378345038e-04
5 8 -9.951753311508e-05
5 9 1.926214478449e-05
5 10 -5.844624776791e-06
5 11 -1.098011158961e-05
5 12 -3.640271364076e-05
5 13 -1.836177901913e-05
5 14 -1.839187101329e-04
5 15 1.554264458240e-04
5 16 -5.444620891082e-04
5 17 -2.620335918419e-04
5 18 2.357561617416e-05
5 19 1.428795964665e-04
5 20 2.141765731692e-04
5 21 -4.573539474494e-04
5 22 1.085370149965e-04
5 23 1.064809870534e-04
5 24 1.167530900088e-04
5 25 -1.661355384518e-04
5 26 -2.851116162784e-04
5 27 -1.282659584589e-05
5 28 -1.848625417685e-04
5 29 -1.192021852852e-04
5 30 -6.945892568736e-05
5 31 -2.503923198580e-04
5 32 -5.812069524719e-05
5 33 -2.945503851474e-04
5 34 3.604224174164e-05
5 35 -1.222074240390e-05
5 36 2.167846703351e-05
6 1 1.316112731119e-05
6 2 2.614012973910e-04
6 3 -1.518555715188e-06
6 4 5.071650779041e-05
6 5 3.276334179996e-05
6 6 1.811044051056e-05
6 7 5.296037578297e-08
6 8 4.406990284393e-07
6 9 -4.448230522471e-07
6 10 -3.816218280880e-06
6 11 3.253577797203e-07
6 12 4.943498266357e-07
6 13 -4.666526892223e-07
6 14 -4.133887053602e-05
6 15 -4.408961884486e-06
6 16 1.284298573291e-05
6 17 -1.238925688043e-05
6 18 5.105669893622e-06
6 19 2.978119563531e-05
6 20 -1.573959370861e-06
6 21 1.035226910795e-05
6 22 1.280808422173e-05
6 23 1.920755210699e-05
6 24 2.242233992464e-05
6 25 -2.082995454415e-06
6 26 1.065319202603e-05
6 27 -1.063142226995e-05
6 28 -4.307840813485e-06
6 29 -1.708943180999e-05
6 30 -2.353632439669e-05
6 31 5.549797894671e-06
6 32 1.180937992739e-05
6 33 -4.014218904799e-06
6 34 1.007004652137e-05
6 35 -3.576257961989e-06
6 36 6.320049856600e-06
7 1 -3.996844163291e-06
7 2 1.743559842236e-06
7 3 -1.085975448186e-04
7 4 7.173664131656e-05
7 5 -1.134378345035e-04
7 6 5.296037249849e-08
7 7 8.433451861204e-06
7 8 -6.637029640504e-07
7 9 5.678579298625e-08
7 10 1.165678667299e-07
7 11 1.962180921439e-06
7 12 8.465998232480e-07
7 13 1.329746148523e-07
7 14 7.060693232707e-06
7 15 -2.692693651147e-05
7 16 1.596940894516e-05
7 17 -8.165635195163e-07
7 18 -1.220818816709e-06
7 19 -5.057829546933e-06
7 20 -2.321272176903e-05
7 21 9.892540888183e-06
7 22 7.044918897734e-06
7 23 -3.560286608201e-06
7 24 -3.434416698347e-06
7 25 1.606402688963e-05
7 26 6.571552637301e-06
7 27 -7.959751736644e-06
7 28 8.804221620492e-07
7 29 3.274081322226e-06
7 30 6.886985135949e-06
7 31 1.706115584876e-05
7 32 8.404932924093e-06
7 33 9.603094444099e-07
7 34 -2.823651820663e-06
7 35 9.984461810737e-07
7 36 -1.765946988135e-06
8 1 1.328409595781e-06
8 2 2.729962550661e-05
8 3 1.208163886197e-04
8 4 -2.245925190852e-05
8 5 -9.951753311604e-05
8 6 4.406990278266e-07
8 7 -6.637029648934e-07
8 8 7.222565744594e-06
8 9 1.559463994781e-07
8 10 -1.820355629454e-07
8 11 -1.129500143903e-06
8 12 1.726796879207e-06
8 13 3.335311966519e-07
8 14 1.320037559324e-06
8 15 1.683641512908e-05
8 16 2.310416013679e-05
8 17 8.441923744792e-06
8 18 -1.003581310227e-07
8 19 -1.675357117765e-06
8 20 1.061465119142e-05
8 21 2.176952575121e-05
8 22 -5.880690890369e-06
8 23 -2.088133817829e-06
8 24 -2.090225148050e-06
8 25 -6.885782314877e-06
8 26 1.263803984619e-05
8 27 2.658213986063e-06
8 28 1.126938162064e-05
8 29 2.965925532960e-06
8 30 -4.313672405676e-06
8 31 -2.185649018707e-06
8 32 1.275752317629e-06
8 33 1.721665306880e-05
8 34 1.289511784093e-06
8 35 -4.944034263120e-07
8 36 8.696612786035e-07
9 1 -4.233585457388e-06
9 2 -3.309698183721e-05
9 3 4.949890533206e-05
9 4 1.111781729698e-04
9 5 1.926214478420e-05
9 6 -4.448230558898e-07
9 7 5.678579248351e-08
9 8 1.559464003617e-07
9 9 4.447290740144e-06
9 10 3.817565908254e-07
9 11 -3.014769207466e-08
9 12 3.462979097884e-07
9 13 -1.870899010847e-06
9 14 7.418370569094e-06
9 15 5.057495430353e-06
9 16 4.264016285812e-06
9 17 -2.089443505674e-05
9 18 -1.534787621378e-06
9 19 -5.430949696331e-06
9 20 6.962148005218e-06
9 21 8.853514023516e-07
9 22 1.686882555604e-05
9 23 -4.581270955937e-06
9 24 -3.754573227972e-06
9 25 -5.419158951086e-06
9 26 -2.877146956970e-06
9 27 -1.194423857228e-05
9 28 2.615070400336e-06
9 29 3.032656000649e-06
9 30 4.035069655525e-06
9 31 -8.050826528237e-06
9 32 1.087466029605e-05
9 33 -4.198625431985e-07
9 34 -1.821558168643e-06
9 35 6.367473084311e-07
9 36 -1.126137880317e-06
10 1 -3.126819006147e-06
10 2 -5.735840091954e-05
10 3 6.218343444482e-07
10 4 -2.101983547067e-06
10 5 -5.844624770976e-06
10 6 -3.816218327455e-06
10 7 1.165678686790e-07
10 8 -1.820355508810e-07
10 9 3.817565997285e-07
10 10 8.297219829551e-07
10 11 -3.025759287028e-08
10 12 -9.242322612703e-08
10 13 -2.695420032756e-08
10 14 9.239207136173e-06
10 15 6.910645644279e-07
10 16 -2.495870623654e-06
10 17 1.107821480393e-06
10 18 -1.186679292712e-06
10 19 -6.650989944099e-06
10 20 3.487395470974e-07
10 21 -2.258947615763e-06
10 22 -1.410974881305e-06
10 23 -4.353149834408e-06
10 24 -4.971607071256e-06
10 25 3.786139638192e-07
10 26 -2.496751227531e-06
10 27 1.306581816603e-06
10 28 9.445191951844e-07
10 29 3.789907514371e-06
10 30 5.349535006114e-06
10 31 -1.442055523674e-06
10 32 -1.668103333981e-06
10 33 6.100815013620e-07
10 34 -2.286433769856e-06
10 35 8.116770593736e-07
10 36 -1.434489635861e-06
11 1 -8.011245213333e-07
11 2 2.137891404616e-06
11 3 -4.123251430295e-05
11 4 1.994546345840e-05
11 5 -1.098011158965e-05
11 6 3.253577796866e-07
11 7 1.962180921406e-06
11 8 -1.129500143900e-06
11 9 -3.014769211414e-08
11 10 -3.025759340411e-08
11 11 6.037377734663e-07
11 12 -4.090160254699e-08
11 13 -2.104355427033e-08
11 14 5.181266288668e-07
11 15 -8.469025192924e-06
11 16 6.302094619064e-07
11 17 -1.556214071148e-06
11 18 -1.488934650713e-07
11 19 -2.653597631349e-07
11 20 -6.721174810687e-06
11 21 -5.888722389745e-07
11 22 2.615370999699e-06
11 23 -9.631370678439e-08
11 24 -3.117203375958e-09
11 25 4.521589797011e-06
11 26 -5.029359355764e-08
11 27 -2.340628413394e-06
11 28 -1.461446461471e-06
11 29 -4.211906952443e-08
11 30 1.639557613591e-06
11 31 4.260300744183e-06
11 32 1.922788345596e-06
11 33 -2.253701501796e-06
11 34 -5.966366333687e-07
11 35 2.159642142857e-07
11 36 -3.814483641190e-07
12 1 -1.410352790082e-07
12 2 1.069810490876e-05
12 3 2.058538922945e-05
12 4 1.208312628929e-05
12 5 -3.640271363791e-05
12 6 4.943498100525e-07
12 7 8.465998246337e-07
12 8 1.726796883622e-06
12 9 3.462979136965e-07
12 10 -9.242321679111e-08
12 11 -4.090160235179e-08
12 12 5.695378734721e-07
12 13 -4.428351926576e-08
12 14 7.549898465857e-07
12 15 1.221310422752e-06
12 16 8.292574577680e-06
12 17 2.431136020046e-07
12 18 -1.637317204340e-07
12 19 -7.283424859574e-07
12 20 3.146811848300e-07
12 21 6.930737299509e-06
12 22 8.706828533019e-07
12 23 -8.330274661996e-07
12 24 -6.857165191423e-07
12 25 -2.181355975408e-07
12 26 3.988177274098e-06
12 27 -1.386081997501e-06
12 28 3.007457414487e-06
12 29 9.575232732561e-07
12 30 -5.036401052361e-07
12 31 1.064648944878e-06
12 32 2.373851520385e-06
12 33 4.294298916056e-06
12 34 8.462534282439e-08
12 35 -4.037743239500e-08
12 36 7.012443853428e-08
13 1 1.329085283163e-06
13 2 6.090439956222e-06
13 3 -1.671436980439e-05
13 4 -4.990801582566e-05
13 5 -1.836177901786e-05
13 6 -4.666526872049e-07
13 7 1.329746160099e-07
13 8 3.335311963793e-07
13 9 -1.870899009832e-06
13 10 -2.695418261755e-08
13 11 -2.104355427421e-08
13 12 -4.428351258894e-08
13 13 8.520058556562e-07
13 14 -1.395714575609e-06
13 15 -1.649861210606e-06
13 16 -5.622032870692e-07
13 17 1.004561087350e-05
13 18 4.365720615331e-07
13 19 9.995232233002e-07
13 20 -2.874690795154e-06
13 21 7.755287799479e-07
13 22 -8.008600388228e-06
13 23 1.045504732629e-06
13 24 5.663357448386e-07
13 25 2.399127985940e-06
13 26 1.765495868588e-06
13 27 5.566833463358e-06
13 28 -2.671106152846e-07
13 29 -4.065946851374e-07
13 30 -9.515322310146e-07
13 31 3.560152590502e-06
13 32 -4.898971723616e-06
13 33 1.402659659657e-06
13 34 4.176695060792e-07
13 35 -1.462111871730e-07
13 36 2.584980547203e-07
14 1 -3.938104612677e-05
14 2 -6.304095316317e-04
14 3 2.511875545651e-05
14 4 1.009446906055e-04
14 5 -1.839187101313e-04
14 6 -4.133887053265e-05
14 7 7.060693234143e-06
14 8 1.320037558836e-06
14 9 7.418370570250e-06
14 10 9.239207158993e-06
14 11 5.181266288690e-07
14 12 7.549898552901e-07
14 13 -1.395714575379e-06
14 14 1.114406327412e-04
14 15 -2.406892239833e-08
14 16 -2.284583582981e-07
14 17 2.722545809390e-07
14 18 -1.493746740454e-05
14 19 -8.063551372990e-05
14 20 -2.773198254350e-06
14 21 -5.335778207405e-06
14 22 -6.188949647595e-07
14 23 -5.423747199515e-05
14 24 -6.023179122389e-05
14 25 8.419036361800e-06
14 26 -1.782777752087e-05
14 27 8.074386018065e-07
14 28 1.858823128887e-05
14 29 4.721901353684e-05
14 30 6.379351245831e-05
14 31 -1.009326233031e-05
14 32 -3.162313003951e-06
14 33 1.583884145312e-05
14 34 -2.753336543346e-05
14 35 9.744842026574e-06
14 36 -1.722627699307e-05
15 1 6.975846912994e-06
15 2 -5.349178803070e-05
15 3 6.370059214877e-04
15 4 -1.573341340357e-04
15 5 1.554264458241e-04
15 6 -4.408961883939e-06
15 7 -2.692693651138e-05
15 8 1.683641512897e-05
15 9 5.057495430381e-06
15 10 6.910645661239e-07
15 11 -8.469025192928e-06
15 12 1.221310423460e-06
15 13 -1.649861210479e-06
15 14 -2.406892225934e-08
15 15 1.240001653103e-04
15 16 -4.086220190447e-09
15 17 1.657077852644e-07
15 18 5.190780835102e-07
15 19 -1.668712626015e-06
15 20 1.011416736543e-04
15 21 1.281859829778e-05
15 22 -1.852246571188e-05
15 23 -3.414559491467e-06
15 24 -3.732114001774e-06
15 25 -6.886233358042e-05
15 26 -3.925099863189e-08
15 27 1.952854830838e-05
15 28 2.452645487141e-05
15 29 3.857373567838e-06
15 30 -1.945522743058e-05
15 31 -6.712247578821e-05
15 32 -1.426816951180e-05
15 33 3.312923425100e-05
15 34 6.696020334686e-06
15 35 -2.450688553229e-06
15 36 4.326378430657e-06
16 1 4.929655727836e-07
16 2 2.351203755408e-04
16 3 2.153046784118e-04
16 4 2.125791411440e-04
16 5 -5.444620891077e-04
16 6 1.284298573265e-05
16 7 1.596940894559e-05
16 8 2.310416013694e-05
16 9 4.264016286328e-06
16 10 -2.495870617819e-06
16 11 6.302094619156e-07
16 12 8.292574579698e-06
16 13 -5.622032874190e-07
16 14 -2.284583588274e-07
16 15 -4.086220266206e-09
16 16 1.248764981378e-04
16 17 8.262476191508e-09
16 18 -1.073992216166e-06
16 19 -2.300579271482e-06
16 20 -9.403268652733e-06
16 21 1.025183539088e-04
16 22 1.884889163927e-05
16 23 -6.498112260679e-06
16 24 -3.413856964684e-06
16 25 5.472784457835e-06
16 26 6.126197305052e-05
16 27 -2.589728514536e-05
16 28 3.953194535964e-05
16 29 8.820417220987e-06
16 30 -1.117191163015e-05
16 31 2.608468693696e-05
16 32 3.995734962765e-05
16 33 5.726674247855e-05
16 34 3.083891080205e-06
16 35 -1.236828217148e-06
16 36 2.168082495007e-06
17 1 1.154160529679e-05
17 2 -1.972904688856e-05
17 3 -8.541549993620e-05
17 4 -6.185042023921e-04
17 5 -2.620335918418e-04
17 6 -1.238925688069e-05
17 7 -8.165635195178e-07
17 8 8.441923744857e-06
17 9 -2.089443505671e-05
17 10 1.107821480220e-06
17 11 -1.556214071145e-06
17 12 2.431136018916e-07
17 13 1.004561087341e-05
17 14 2.722545808275e-07
17 15 1.657077852572e-07
17 16 8.262476159016e-09
17 17 1.249072259772e-04
17 18 3.086135498652e-06
17 19 -7.505783083108e-07
17 20 -1.982906523407e-05
17 21 1.670354547425e-05
17 22 -1.016455984529e-04
17 23 3.476936741566e-06
17 24 -3.305338673109e-06
17 25 1.997479659405e-05
17 26 2.255771313537e-05
17 27 7.110168631814e-05
17 28 5.939695153513e-06
17 29 3.563470490166e-06
17 30 -5.602632698457e-06
17 31 3.292223472244e-05
17 32 -6.150729118998e-05
17 33 2.868432000139e-05
17 34 2.123528612194e-06
17 35 -7.529664041190e-07
17 36 1.329671778242e-06
18 1 5.590622723877e-06
18 2 8.175459549239e-05
18 3 -4.780448091754e-06
18 4 -3.152805136142e-05
18 5 2.357561617432e-05
18 6 5.105669899810e-06
18 7 -1.220818816240e-06
18 8 -1.003581324384e-07
18 9 -1.534787621725e-06
18 10 -1.186679282027e-06
18 11 -1.488934651290e-07
18 12 -1.637317154453e-07
18 13 4.365720633771e-07
18 14 -1.493746740231e-05
18 15 5.190780836081e-07
18 16 -1.073992215348e-06
18 17 3.086135498686e-06
18 18 2.092288364361e-06
18 19 1.080969095840e-05
18 20 3.768132390761e-07
18 21 2.789426363009e-07
18 22 -2.700811599337e-06
18 23 7.404391016644e-06
18 24 8.010231273664e-06
18 25 -9.625884601384e-07
18 26 2.412912180468e-06
18 27 1.978604494692e-06
18 28 -2.593293839313e-06
18 29 -6.306295740049e-06
18 30 -8.677351713217e-06
18 31 1.668821186364e-06
18 32 -1.525639635136e-06
18 33 -1.777266910092e-06
18 34 3.746149363527e-06
18 35 -1.324964681001e-06
18 36 2.342275493555e-06
19 1 2.833140762347e-05
19 2 4.523382120149e-04
19 3 -3.071016673687e-05
19 4 -7.237452939859e-05
19 5 1.428795964640e-04
19 6 2.978119566350e-05
19 7 -5.057829547365e-06
19 8 -1.675357124869e-06
19 9 -5.430949700798e-06
19 10 -6.650989932661e-06
19 11 -2.653597634178e-07
19 12 -7.283424762715e-07
19 13 9.995232334477e-07
19 14 -8.063551371694e-05
19 15 -1.668712625118e-06
19 16 -2.300579267902e-06
19 17 -7.505783083505e-07
19 18 1.080969096332e-05
19 19 5.842064171857e-05
19 20 9.050015722135e-07
19 21 1.588474796033e-06
19 22 7.758939296895e-07
19 23 3.940560345637e-05
19 24 4.371648971768e-05
19 25 -5.352642815381e-06
19 26 1.159218986392e-05
19 27 -6.520023567991e-07
19 28 -1.459128758313e-05
19 29 -3.441118620980e-05
19 30 -4.565166562634e-05
19 31 7.555553851494e-06
19 32 1.964565429122e-06
19 33 -1.316879472504e-05
19 34 1.976205297044e-05
19 35 -6.990415406135e-06
19 36 1.235760121975e-05
20 1 4.775322658428e-06
20 2 -4.276821727957e-05
20 3 5.165286889286e-04
20 4 -4.802144137438e-05
20 5 2.141765731693e-04
20 6 -1.573959373048e-06
20 7 -2.321272176904e-05
20 8 1.061465119197e-05
20 9 6.962148005513e-06
20 10 3.487395455123e-07
20 11 -6.721174810665e-06
20 12 3.146811838294e-07
20 13 -2.874690795914e-06
20 14 -2.773198255305e-06
20 15 1.011416736543e-04
20 16 -9.403268653014e-06
20 17 -1.982906523407e-05
20 18 3.768132387835e-07
20 19 9.050015726403e-07
20 20 8.646210121946e-05
20 21 1.995686718739e-07
20 22 -2.757642672415e-07
20 23 -1.524596105988e-06
20 24 -7.856134049394e-07
20 25 -5.999180161282e-05
20 26 -7.813446737852e-06
20 27 6.502907033274e-06
20 28 1.562930002381e-05
20 29 7.580104385537e-07
20 30 -1.569752284227e-05
20 31 -6.174033587567e-05
20 32 -4.745309838738e-06
20 33 1.774565994777e-05
20 34 5.565330334922e-06
20 35 -2.024458596474e-06
20 36 3.575584335311e-06
21 1 4.500418341919e-06
21 2 2.141602545963e-04
21 3 2.299025930562e-04
21 4 7.091055540282e-05
21 5 -4.573539474498e-04
21 6 1.035226910610e-05
21 7 9.892540887773e-06
21 8 2.176952575160e-05
21 9 8.853514021625e-07
21 10 -2.258947622581e-06
21 11 -5.888722389606e-07
21 12 6.930737296716e-06
21 13 7.755287795307e-07
21 14 -5.335778207849e-06
21 15 1.281859829779e-05
21 16 1.025183539085e-04
21 17 1.670354547422e-05
21 18 2.789426367649e-07
21 19 1.588474799696e-06
21 20 1.995686716194e-07
21 21 8.795746449498e-05
21 22 5.735805688230e-09
21 23 -2.699681930109e-06
21 24 -8.283232516004e-07
21 25 -3.372443037515e-07
21 26 5.412732373233e-05
21 27 -9.778277442209e-06
21 28 3.491146422132e-05
21 29 5.919173238294e-06
21 30 -1.489392907658e-05
21 31 1.935303108859e-05
21 32 2.325436127978e-05
21 33 5.352463597386e-05
21 34 4.786715028583e-06
21 35 -1.821984635187e-06
21 36 3.204986759846e-06
22 1 -1.022017674113e-05
22 2 6.155541276375e-05
22 3 7.459549848562e-06
22 4 5.582933996786e-04
22 5 1.085370149965e-04
22 6 1.280808422163e-05
22 7 7.044918897732e-06
22 8 -5.880690890344e-06
22 9 1.686882555605e-05
22 10 -1.410974881403e-06
22 11 2.615370999700e-06
22 12 8.706828532492e-07
22 13 -8.008600388259e-06
22 14 -6.188949647995e-07
22 15 -1.852246571188e-05
22 16 1.884889163925e-05
22 17 -1.016455984529e-04
22 18 -2.700811599344e-06
22 19 7.758939297212e-07
22 20 -2.757642672419e-07
22 21 5.735805697754e-09
22 22 8.829080772501e-05
22 23 -3.125167550689e-06
22 24 2.925194697829e-06
22 25 -5.241258360631e-06
22 26 -9.038420718068e-06
22 27 -6.465497542167e-05
22 28 -2.561695343119e-06
22 29 -2.294653041485e-06
22 30 5.546485611695e-06
22 31 -1.286005259236e-05
22 32 5.819982092692e-05
22 33 -1.965511751655e-05
22 34 -2.164397039737e-06
22 35 7.572047380308e-07
22 36 -1.339324337621e-06
23 1 1.929287809042e-05
23 2 2.953982626426e-04
23 3 -4.372422052051e-05
23 4 -7.394380940145e-05
23 5 1.064809870561e-04
23 6 1.920755208508e-05
23 7 -3.560286607444e-06
23 8 -2.088133812008e-06
23 9 -4.581270951958e-06
23 10 -4.353149835254e-06
23 11 -9.631370650060e-08
23 12 -8.330274709461e-07
23 13 1.045504724292e-06
23 14 -5.423747200586e-05
23 15 -3.414559492254e-06
23 16 -6.498112263436e-06
23 17 3.476936741653e-06
23 18 7.404391011729e-06
23 19 3.940560345153e-05
23 20 -1.524596105288e-06
23 21 -2.699681926912e-06
23 22 -3.125167550651e-06
23 23 2.694629281098e-05
23 24 2.951406556509e-05
23 25 -1.905009671116e-06
23 26 6.090966318975e-06
23 27 2.494718053377e-06
23 28 -1.164922588470e-05
23 29 -2.346005538158e-05
23 30 -3.009214356004e-05
23 31 6.343624109040e-06
23 32 -1.960316746400e-06
23 33 -1.082941248732e-05
23 34 1.311834128575e-05
23 35 -4.633050257791e-06
23 36 8.191097495855e-06
24 1 2.077279165324e-05
24 2 3.361799442938e-04
24 3 -3.673689618992e-05
24 4 -4.022136619217e-05
24 5 1.167530900115e-04
24 6 2.242233990277e-05
24 7 -3.434416697510e-06
24 8 -2.090225142342e-06
24 9 -3.754573223891e-06
24 10 -4.971607072114e-06
24 11 -3.117203130088e-09
24 12 -6.857165238579e-07
24 13 5.663357365224e-07
24 14 -6.023179123460e-05
24 15 -3.732114002569e-06
24 16 -3.413856967438e-06
24 17 -3.305338673032e-06
24 18 8.010231268756e-06
24 19 4.371648971283e-05
24 20 -7.856134042351e-07
24 21 -8.283232484116e-07
24 22 2.925194697872e-06
24 23 2.951406556508e-05
24 24 3.284732437307e-05
24 25 -3.131890091454e-06
24 26 7.331872376408e-06
24 27 -2.086817741652e-06
24 28 -1.205615810653e-05
24 29 -2.597704825182e-05
24 30 -3.343464883441e-05
24 31 5.910429691022e-06
24 32 2.560420482113e-06
24 33 -1.190638445303e-05
24 34 1.453842045189e-05
24 35 -5.138957102061e-06
24 36 9.085043082857e-06
25 1 -4.955747001174e-06
25 2 -1.047886226198e-05
25 3 -3.562425340351e-04
25 4 5.066161322769e-06
25 5 -1.661355384528e-04
25 6 -2.082995457140e-06
25 7 1.606402688860e-05
25 8 -6.885782314408e-06
25 9 -5.419158951827e-06
25 10 3.786139478271e-07
25 11 4.521589797027e-06
25 12 -2.181356037558e-07
25 13 2.399127985600e-06
25 14 8.419036361583e-06
25 15 -6.886233358034e-05
25 16 5.472784457407e-06
25 17 1.997479659398e-05
25 18 -9.625884586735e-07
25 19 -5.352642806404e-06
25 20 -5.999180161348e-05
25 21 -3.372443039954e-07
25 22 -5.241258360659e-06
25 23 -1.905009678621e-06
25 24 -3.131890098944e-06
25 25 4.233472540194e-05
25 26 4.994018373081e-06
25 27 -5.150752303338e-07
25 28 -9.538728105438e-06
25 29 2.364188435523e-06
25 30 1.421069076790e-05
25 31 4.296053006821e-05
25 32 -4.266901795409e-07
25 33 -1.009524435412e-05
25 34 -5.312072795016e-06
25 35 1.918375471685e-06
25 36 -3.388971865686e-06
26 1 8.596705563845e-06
26 2 2.122295698406e-04
26 3 8.573637451105e-05
26 4 -2.367391190291e-05
26 5 -2.851116162758e-04
26 6 1.065319202935e-05
26 7 6.571552639581e-06
26 8 1.263803984586e-05
26 9 -2.877146954890e-06
26 10 -2.496751193194e-06
26 11 -5.029359355290e-08
26 12 3.988177286906e-06
26 13 1.765495868319e-06
26 14 -1.782777752168e-05
26 15 -3.925099890451e-08
26 16 6.126197305112e-05
26 17 2.255771313554e-05
26 18 2.412912176739e-06
26 19 1.159218984402e-05
26 20 -7.813446736356e-06
26 21 5.412732373324e-05
26 22 -9.038420718004e-06
26 23 6.090966335133e-06
26 24 7.331872392536e-06
26 25 4.994018373969e-06
26 26 3.695886451013e-05
26 27 2.641012539268e-08
26 28 1.747860041666e-05
26 29 -2.561010513344e-06
26 30 -1.664928921063e-05
26 31 2.039220262613e-05
26 32 8.975065045266e-06
26 33 3.072200175686e-05
26 34 6.281471984833e-06
26 35 -2.294685237291e-06
26 36 4.047151454877e-06
27 1 7.342540755805e-06
27 2 -7.181939189837e-05
27 3 6.710497974910e-06
27 4 -4.201430964895e-04
27 5 -1.282659584589e-05
27 6 -1.063142226990e-05
27 7 -7.959751736636e-06
27 8 2.658213986052e-06
27 9 -1.194423857228e-05
27 10 1.306581816744e-06
27 11 -2.340628413395e-06
27 12 -1.386081997442e-06
27 13 5.566833463373e-06
27 14 8.074386018213e-07
27 15 1.952854830838e-05
27 16 -2.589728514535e-05
27 17 7.110168631814e-05
27 18 1.978604494687e-06
27 19 -6.520023568724e-07
27 20 6.502907033278e-06
27 21 -9.778277442211e-06
27 22 -6.465497542167e-05
27 23 2.494718053439e-06
27 24 -2.086817741587e-06
27 25 -5.150752303430e-07
27 26 2.641012542080e-08
27 27 4.889541714162e-05
27 28 -8.739291621481e-07
27 29 1.060810933159e-06
27 30 -3.571445811938e-06
27 31 2.748918384347e-06
27 32 -4.554030967672e-05
27 33 9.723409835109e-06
27 34 1.467707090315e-06
27 35 -5.027695793280e-07
27 36 8.908679065091e-07
28 1 -4.507974952803e-06
28 2 -4.251517559047e-05
28 3 1.944065166255e-04
28 4 2.413035736223e-05
28 5 -1.848625417658e-04
28 6 -4.307840830462e-06
28 7 8.804221632414e-07
28 8 1.126938162515e-05
28 9 2.615070404084e-06
28 10 9.445192019454e-07
28 11 -1.461446461269e-06
28 12 3.007457413502e-06
28 13 -2.671106220082e-07
28 14 1.858823128013e-05
28 15 2.452645487071e-05
28 16 3.953194535757e-05
28 17 5.939695153617e-06
28 18 -2.593293844052e-06
28 19 -1.459128759137e-05
28 20 1.562930002470e-05
28 21 3.491146422407e-05
28 22 -2.561695343075e-06
28 23 -1.164922588116e-05
28 24 -1.205615810300e-05
28 25 -9.538728099245e-06
28 26 1.747860040375e-05
28 27 -8.739291622040e-07
28 28 2.076777558877e-05
28 29 1.162901607286e-05
28 30 3.026941130636e-06
28 31 -5.154589941406e-06
28 32 6.425465255683e-06
28 33 2.869516847657e-05
28 34 -2.207346598709e-06
28 35 7.191673312669e-07
28 36 -1.278282185596e-06
29 1 -1.610887928719e-05
29 2 -2.525868615119e-04
29 3 4.351266451927e-05
29 4 3.601330131742e-05
29 5 -1.192021852833e-04
29 6 -1.708943182713e-05
29 7 3.274081322709e-06
29 8 2.965925537378e-06
29 9 3.032656003646e-06
29 10 3.789907511438e-06
29 11 -4.211906932829e-08
29 12 9.575232687740e-07
29 13 -4.065946915132e-07
29 14 4.721901352866e-05
29 15 3.857373567249e-06
29 16 8.820417218828e-06
29 17 3.563470490213e-06
29 18 -6.306295743568e-06
29 19 -3.441118621219e-05
29 20 7.580104390015e-07
29 21 5.919173240687e-06
29 22 -2.294653041459e-06
29 23 -2.346005538264e-05
29 24 -2.597704825288e-05
29 25 2.364188441227e-06
29 26 -2.561010525748e-06
29 27 1.060810933113e-06
29 28 1.162901606929e-05
29 29 2.086062228352e-05
29 30 2.547745648637e-05
29 31 -3.598815962767e-06
29 32 -6.265311989785e-07
29 33 1.262447080430e-05
29 34 -1.118131170322e-05
29 35 3.944489339713e-06
29 36 -6.974294455100e-06
30 1 -2.420535659063e-05
30 2 -3.723092031502e-04
30 3 -1.005770424877e-04
30 4 9.201934390693e-05
30 5 -6.945892568627e-05
30 6 -2.353632439537e-05
30 7 6.886985136944e-06
30 8 -4.313672405818e-06
30 9 4.035069656451e-06
30 10 5.349535020779e-06
30 11 1.639557613586e-06
30 12 -5.036400997759e-07
30 13 -9.515322311471e-07
30 14 6.379351245793e-05
30 15 -1.945522743070e-05
30 16 -1.117191162991e-05
30 17 -5.602632698383e-06
30 18 -8.677351714822e-06
30 19 -4.565166563488e-05
30 20 -1.569752284163e-05
30 21 -1.489392907618e-05
30 22 5.546485611724e-06
30 23 -3.009214355313e-05
30 24 -3.343464882751e-05
30 25 1.421069076830e-05
30 26 -1.664928921067e-05
30 27 -3.571445811950e-06
30 28 3.026941136144e-06
30 29 2.547745649168e-05
30 30 4.080570581830e-05
30 31 9.260233388830e-07
30 32 -2.842333746319e-07
30 33 -2.506757230835e-06
30 34 -1.717804012724e-05
30 35 6.105375015934e-06
30 36 -1.079008239964e-05
31 1 2.956557435478e-06
31 2 1.301306953104e-04
31 3 -3.249928540289e-04
31 4 -4.317101276686e-05
31 5 -2.503923198579e-04
31 6 5.549797893990e-06
31 7 1.706115584877e-05
31 8 -2.185649018533e-06
31 9 -8.050826528124e-06
31 10 -1.442055523878e-06
31 11 4.260300744190e-06
31 12 1.064648944671e-06
31 13 3.560152590253e-06
31 14 -1.009326233063e-05
31 15 -6.712247578823e-05
31 16 2.608468693688e-05
31 17 3.292223472244e-05
31 18 1.668821186236e-06
31 19 7.555553851452e-06
31 20 -6.174033587566e-05
31 21 1.935303108868e-05
31 22 -1.286005259236e-05
31 23 6.343624108957e-06
31 24 5.910429690939e-06
31 25 4.296053006843e-05
31 26 2.039220262565e-05
31 27 2.748918384345e-06
31 28 -5.154589941578e-06
31 29 -3.598815962799e-06
31 30 9.260233386758e-07
31 31 5.142663137612e-05
31 32 8.732675126620e-08
31 33 1.518042788196e-07
31 34 8.106850573318e-08
31 35 -1.563767540035e-08
31 36 2.659475721720e-08
32 1 -5.275945446466e-06
32 2 1.077918193499e-04
32 3 3.739057179418e-05
32 4 3.877853969173e-04
32 5 -5.812069524719e-05
32 6 1.180937992734e-05
32 7 8.404932924096e-06
32 8 1.275752317642e-06
32 9 1.087466029606e-05
32 10 -1.668103333967e-06
32 11 1.922788345597e-06
32 12 2.373851520381e-06
32 13 -4.898971723635e-06
32 14 -3.162313003976e-06
32 15 -1.426816951180e-05
32 16 3.995734962765e-05
32 17 -6.150729118998e-05
32 18 -1.525639635149e-06
32 19 1.964565429103e-06
32 20 -4.745309838736e-06
32 21 2.325436127979e-05
32 22 5.819982092692e-05
32 23 -1.960316746390e-06
32 24 2.560420482120e-06
32 25 -4.266901795234e-07
32 26 8.975065045231e-06
32 27 -4.554030967672e-05
32 28 6.425465255684e-06
32 29 -6.265311989697e-07
32 30 -2.842333746474e-07
32 31 8.732675126659e-08
32 32 4.477690260235e-05
32 33 -7.121289917860e-09
32 34 -9.379596327873e-08
32 35 -3.383263993441e-09
32 36 1.463366443161e-09
33 1 -8.837233461251e-07
33 2 -7.868879582130e-07
33 3 2.528376937458e-04
33 4 -7.166859098637e-05
33 5 -2.945503851472e-04
33 6 -4.014218904070e-06
33 7 9.603094445917e-07
33 8 1.721665306865e-05
33 9 -4.198625430963e-07
33 10 6.100815043947e-07
33 11 -2.253701501801e-06
33 12 4.294298917275e-06
33 13 1.402659659799e-06
33 14 1.583884145327e-05
33 15 3.312923425099e-05
33 16 5.726674247866e-05
33 17 2.868432000140e-05
33 18 -1.777266910322e-06
33 19 -1.316879472669e-05
33 20 1.774565994788e-05
33 21 5.352463597387e-05
33 22 -1.965511751655e-05
33 23 -1.082941248591e-05
33 24 -1.190638445161e-05
33 25 -1.009524435420e-05
33 26 3.072200175718e-05
33 27 9.723409835108e-06
33 28 2.869516847777e-05
33 29 1.262447080537e-05
33 30 -2.506757230694e-06
33 31 1.518042788605e-07
33 32 -7.121289914677e-09
33 33 4.394419263339e-05
33 34 -2.369319517277e-07
33 35 -4.714246823401e-09
33 36 -1.920780019792e-09
34 1 1.031861209329e-05
34 2 1.582128730628e-04
34 3 3.187589050755e-05
34 4 -3.907234444130e-05
34 5 3.604224174134e-05
34 6 1.007004652061e-05
34 7 -2.823651820948e-06
34 8 1.289511784225e-06
34 9 -1.821558168855e-06
34 10 -2.286433774385e-06
34 11 -5.966366333673e-07
34 12 8.462534107061e-08
34 13 4.176695059884e-07
34 14 -2.753336543352e-05
34 15 6.696020334710e-06
34 16 3.083891080086e-06
34 17 2.123528612172e-06
34 18 3.746149363945e-06
34 19 1.976205297299e-05
34 20 5.565330334736e-06
34 21 4.786715028511e-06
34 22 -2.164397039745e-06
34 23 1.311834128363e-05
34 24 1.453842044976e-05
34 25 -5.312072795020e-06
34 26 6.281471984587e-06
34 27 1.467707090318e-06
34 28 -2.207346600459e-06
34 29 -1.118131170484e-05
34 30 -1.717804012735e-05
34 31 8.106850567051e-08
34 32 -9.379596328354e-08
34 33 -2.369319517068e-07
34 34 7.275057611508e-06
34 35 -2.582755179586e-06
34 36 4.564840894837e-06
35 1 -3.656754570750e-06
35 2 -5.623301800208e-05
35 3 -1.194653445554e-05
35 4 1.368992568411e-05
35 5 -1.222074240386e-05
35 6 -3.576257962572e-06
35 7 9.984461810707e-07
35 8 -4.944034261646e-07
35 9 6.367473085117e-07
35 10 8.116770589947e-07
35 11 2.159642142921e-07
35 12 -4.037743265369e-08
35 13 -1.462111873787e-07
35 14 9.744842026319e-06
35 15 -2.450688553247e-06
35 16 -1.236828217223e-06
35 17 -7.529664041189e-07
35 18 -1.324964681083e-06
35 19 -6.990415406046e-06
35 20 -2.024458596472e-06
35 21 -1.821984635116e-06
35 22 7.572047380310e-07
35 23 -4.633050257959e-06
35 24 -5.138957102228e-06
35 25 1.918375471863e-06
35 26 -2.294685237694e-06
35 27 -5.027695793293e-07
35 28 7.191673310420e-07
35 29 3.944489339613e-06
35 30 6.105375015761e-06
35 31 -1.563767540340e-08
35 32 -3.383263993931e-09
35 33 -4.714246855516e-09
35 34 -2.582755179535e-06
35 35 9.171318910447e-07
35 36 -1.620941531982e-06
36 1 6.464026542899e-06
36 2 9.937344974880e-05
36 3 2.105797443516e-05
36 4 -2.421721394026e-05
36 5 2.167846703351e-05
36 6 6.320049856598e-06
36 7 -1.765946988135e-06
36 8 8.696612786037e-07
36 9 -1.126137880317e-06
36 10 -1.434489635863e-06
36 11 -3.814483641190e-07
36 12 7.012443853155e-08
36 13 2.584980547200e-07
36 14 -1.722627699307e-05
36 15 4.326378430657e-06
36 16 2.168082495006e-06
36 17 1.329671778242e-06
36 18 2.342275493555e-06
36 19 1.235760121975e-05
36 20 3.575584335310e-06
36 21 3.204986759846e-06
36 22 -1.339324337621e-06
36 23 8.191097495855e-06
36 24 9.085043082854e-06
36 25 -3.388971865686e-06
36 26 4.047151454878e-06
36 27 8.908679065091e-07
36 28 -1.278282185596e-06
36 29 -6.974294455102e-06
36 30 -1.079008239964e-05
36 31 2.659475721727e-08
36 32 1.463366443169e-09
36 33 -1.920780019901e-09
36 34 4.564840894838e-06
36 35 -1.620941531982e-06
36 36 2.864860786604e-06
