%%MatrixMarket matrix coordinate real general
36 4 144
1 1 7.076023067043e-05
1 2 8.724145848760e-05
1 3 2.254708429916e-04
1 4 4.275126303810e-04
2 1 -2.948667654721e-04
2 2 -6.877983615539e-05
2 3 1.296641205499e-04
2 4 -9.177922846959e-05
3 1 2.026168086893e-04
3 2 -6.976078265541e-04
3 3 1.921750552825e-05
3 4 3.694553475668e-04
4 1 -3.960903311340e-04
4 2 1.100625019989e-04
4 3 1.262170473515e-05
4 4 1.036726287394e-03
5 1 2.723422195885e-04
5 2 1.878210277653e-04
5 3 -7.181889302643e-04
5 4 1.820486861206e-04
6 1 -1.219600119839e-02
6 2 -4.019579842463e-03
6 3 -7.044869251459e-03
6 4 -3.804735844142e-03
7 1 -9.254498318242e-03
7 2 7.971788031579e-03
7 3 1.107724956844e-02
7 4 1.148407513028e-03
8 1 -6.882162767390e-04
8 2 -1.387679455685e-02
8 3 9.567984999570e-03
8 4 -7.713522125208e-04
9 1 -3.051599257617e-03
9 2 -2.503175769043e-03
9 3 -2.586697810997e-03
9 4 1.719823673282e-02
10 1 -1.630542690214e-02
10 2 -6.129864197987e-03
10 3 -1.024383239877e-02
10 4 -6.787913687049e-03
11 1 2.285040042156e-02
11 2 -3.150912655235e-02
11 3 -1.117583862342e-02
11 4 -1.631102355864e-03
12 1 1.979892414774e-02
12 2 2.509294316938e-02
12 3 -3.465722244512e-02
12 4 -5.739858103823e-03
13 1 -1.512937117628e-02
13 2 -4.403682455766e-03
13 3 -2.325700560436e-02
13 4 5.284308749543e-02
14 1 -6.234182917847e-01
14 2 -2.723415812684e-01
14 3 -6.005248904941e-01
14 4 -5.306590684656e-01
15 1 -5.246100063854e-01
15 2 9.284149197309e-01
15 3 2.629768525244e-01
15 4 -1.574892050639e-01
16 1 6.132792661696e-01
16 2 5.337285028654e-01
16 3 -7.467596435841e-01
16 4 -1.450019487331e-01
17 1 -3.918126139189e-01
17 2 6.779161142453e-02
17 3 -4.547779259154e-01
17 4 9.363292548604e-01
18 1 6.635693422125e-02
18 2 3.738616700426e-02
18 3 7.702623885131e-02
18 4 9.550134494514e-02
19 1 4.487627495317e-01
19 2 1.739723125444e-01
19 3 4.487802061675e-01
19 4 3.854864790370e-01
20 1 -3.971626834064e-01
20 2 7.144094960033e-01
20 3 3.589983825014e-01
20 4 -2.542748810227e-01
21 1 4.268350020882e-01
21 2 5.566872564779e-01
21 3 -6.200964587180e-01
21 4 1.461766588956e-02
22 1 4.922499122321e-01
22 2 -1.115409911831e-01
22 3 2.207372793733e-01
22 4 -7.589071875042e-01
23 1 2.752348986990e-01
23 2 8.096753252369e-02
23 3 3.125917446680e-01
23 4 2.983542714918e-01
24 1 3.466902486455e-01
24 2 1.028023925684e-01
24 3 3.506801309142e-01
24 4 2.730996720798e-01
25 1 2.094492508751e-01
25 2 -5.037691849983e-01
25 3 -2.981612064741e-01
25 4 1.920941200413e-01
26 1 3.307617989382e-01
26 2 3.179927743386e-01
26 3 -3.541137040424e-01
26 4 1.836595255310e-01
27 1 -4.374066945379e-01
27 2 7.215805828259e-02
27 3 -6.620998367894e-02
27 4 5.369413598651e-01
28 1 -3.231289928907e-02
28 2 3.114362197522e-01
28 3 -3.076683622222e-01
28 4 -1.224692904267e-01
29 1 -2.485609575555e-01
29 2 -4.674243417051e-02
29 3 -3.134446762779e-01
29 4 -2.152132540615e-01
30 1 -3.121307511783e-01
30 2 -3.529765593189e-01
30 3 -2.993237715980e-01
30 4 -3.103649060928e-01
31 1 3.665404461889e-01
31 2 -3.500161687097e-01
31 3 -3.652807084994e-01
31 4 3.518863503864e-01
32 1 4.673086099223e-01
32 2 3.854716835696e-02
32 3 -2.931890214984e-02
32 4 -4.763306184925e-01
33 1 -3.739418485694e-02
33 2 4.709437783589e-01
33 3 -4.639280492454e-01
33 4 3.012602347999e-02
34 1 1.343103430817e-01
34 2 1.319679977340e-01
34 3 1.370885004607e-01
34 4 1.359625428450e-01
35 1 -4.791145626056e-02
35 2 -4.794658850365e-02
35 3 -4.781687480255e-02
35 4 -4.786709995964e-02
36 1 8.462949902317e-02
36 2 8.462949936109e-02
36 3 8.462949920188e-02
36 4 8.462949970404e-02
