%%MatrixMarket matrix coordinate real general
36 4 144
1 1 -5.475215900822e-02
1 2 -5.019300440833e-02
1 3 -5.379596967811e-02
1 4 -5.455907516031e-02
2 1 -1.236277554976e+00
2 2 -5.292623413290e-01
2 3 -4.727369314893e-01
2 4 -6.861203249919e-01
3 1 4.095405339340e-01
3 2 -1.524307447993e+00
3 3 -6.355172902930e-02
3 4 5.153773790722e-01
4 1 -8.350130277293e-01
4 2 2.322435449164e-01
4 3 -2.527422457899e-02
4 4 1.459696443256e+00
5 1 4.308528362584e-01
5 2 2.519295665828e-01
5 3 -1.576134465838e+00
5 4 1.960747478078e-01
6 1 -5.748488968907e-01
6 2 -1.957531061856e-01
6 3 -3.178669996799e-01
6 4 -1.464537617159e-01
7 1 -2.811306493281e-01
7 2 2.778962612233e-01
7 3 3.657775322147e-01
7 4 3.965275243295e-02
8 1 -1.561593604604e-02
8 2 -4.283792327792e-01
8 3 2.840266680825e-01
8 4 -1.442782109889e-02
9 1 -4.749455561804e-02
9 2 -5.409207771869e-02
9 3 -4.654075262851e-02
9 4 3.574331134148e-01
10 1 2.489297778531e-01
10 2 9.494195639394e-02
10 3 1.495537018521e-01
10 4 1.059687202468e-01
11 1 -9.760906343835e-02
11 2 1.587739579749e-01
11 3 5.453076578738e-02
11 4 1.033333796760e-02
12 1 -5.483307429759e-02
12 2 -8.645484280497e-02
12 3 1.212081571127e-01
12 4 2.991350766484e-02
13 1 1.546802352180e-02
13 2 6.037612416094e-03
13 3 3.249799695482e-02
13 4 -1.122783718526e-01
14 1 -6.222224672653e-01
14 2 -2.714162550331e-01
14 3 -5.994157073361e-01
14 4 -5.298239226205e-01
15 1 -5.253588440636e-01
15 2 9.304052961142e-01
15 3 2.636343697290e-01
15 4 -1.582097818089e-01
16 1 6.143194815822e-01
16 2 5.350777875103e-01
16 3 -7.490351866438e-01
16 4 -1.458179966075e-01
17 1 -3.925163343868e-01
17 2 6.796358208730e-02
17 3 -4.561864237668e-01
17 4 9.413144280741e-01
18 1 6.748005615446e-02
18 2 3.848487839100e-02
18 3 7.839787770925e-02
18 4 9.739924569333e-02
19 1 4.457272346536e-01
19 2 1.739459111874e-01
19 3 4.456658417982e-01
19 4 3.832921299276e-01
20 1 -3.942437063586e-01
20 2 7.086802703793e-01
20 3 3.559073508973e-01
20 4 -2.518031927342e-01
21 1 4.236883661912e-01
21 2 5.523947031251e-01
21 3 -6.151645987905e-01
21 4 1.438875867566e-02
22 1 4.888993644285e-01
22 2 -1.107213617740e-01
22 3 2.190421356283e-01
22 4 -7.518002448114e-01
23 1 2.741185922198e-01
23 2 7.992400991716e-02
23 3 3.114610332281e-01
23 4 2.967506179341e-01
24 1 3.473147119801e-01
24 2 1.021003471741e-01
24 3 3.513988743539e-01
24 4 2.730411294211e-01
25 1 2.106300418941e-01
25 2 -5.080868202890e-01
25 3 -3.009493821063e-01
25 4 1.933724515825e-01
26 1 3.339286180202e-01
26 2 3.210566817950e-01
26 3 -3.562302800897e-01
26 4 1.860887738500e-01
27 1 -4.402734795449e-01
27 2 7.267589489099e-02
27 3 -6.663823682572e-02
27 4 5.412692859331e-01
28 1 -3.335680557336e-02
28 2 3.125701977823e-01
28 3 -3.103600837733e-01
28 4 -1.242917109437e-01
29 1 -2.503953035484e-01
29 2 -4.790570922414e-02
29 3 -3.154215004542e-01
29 4 -2.172600987256e-01
30 1 -3.119949083678e-01
30 2 -3.528395740578e-01
30 3 -2.992540397579e-01
30 4 -3.101491026137e-01
31 1 3.665418534364e-01
31 2 -3.500967369780e-01
31 3 -3.653207163926e-01
31 4 3.518320441347e-01
32 1 4.672651784091e-01
32 2 3.854851142434e-02
32 3 -2.929854730285e-02
32 4 -4.761617660179e-01
33 1 -3.731444863142e-02
33 2 4.709834783197e-01
33 3 -4.637849459228e-01
33 4 3.020862473204e-02
34 1 1.341312655209e-01
34 2 1.317630200493e-01
34 3 1.369415026366e-01
34 4 1.357543049701e-01
35 1 -4.797823033189e-02
35 2 -4.801619839940e-02
35 3 -4.786904606780e-02
35 4 -4.793621379279e-02
36 1 8.462949902437e-02
36 2 8.462949936135e-02
36 3 8.462949920062e-02
36 4 8.462949970634e-02
