%%MatrixMarket matrix coordinate real general
36 36 36
1 1 1.106697646608e+03
2 2 8.502590568967e+02
3 3 7.907808306531e+02
4 4 6.635236247930e+02
5 5 6.257957695162e+02
6 6 5.913528480237e+01
7 7 3.177497497772e+01
8 8 2.386171931146e+01
9 9 2.194072967526e+01
10 10 7.890638606085e-01
11 11 7.808018238011e-01
12 12 7.797196494505e-01
13 13 7.786482862496e-01
14 14 4.088842182030e-01
15 15 3.823766374409e-01
16 16 3.496010846053e-01
17 17 3.468786657704e-01
18 18 3.420848200287e-01
19 19 1.246552719134e-01
20 20 1.112099328642e-01
21 21 1.101289049688e-01
22 22 1.089739595431e-01
23 23 9.197796753583e-02
24 24 4.443897488382e-02
25 25 3.832775152352e-02
26 26 3.446661293481e-02
27 27 3.260231322208e-02
28 28 3.148453019431e-02
29 29 2.940010367330e-02
30 30 2.111310340032e-02
31 31 1.520290678504e-02
32 32 1.396104963182e-02
33 33 1.392714640485e-02
34 34 9.147039850522e-03
35 35 1.415335931523e-03
36 36 9.149737626330e-15
