%%MatrixMarket matrix coordinate real general
1 49 49
1 1 -3.461092294645e-03
1 2 7.192400804773e-03
1 3 -2.542222366028e-03
1 4 -5.196693499613e-03
1 5 -7.970057062557e-03
1 6 2.080573189890e-03
1 7 5.899219839537e-03
1 8 -4.102990831117e-02
1 9 2.565250892732e-03
1 10 2.045808833781e-03
1 11 2.479905718774e-04
1 12 3.700958003084e-04
1 13 9.015480296549e-04
1 14 8.686238191683e-04
1 15 -2.634944155627e-04
1 16 5.813070334831e-04
1 17 6.315017446336e-04
1 18 8.414627834359e-05
1 19 -1.505554180020e-06
1 20 1.053616503605e-04
1 21 -1.911758093424e-04
1 22 -1.662622810334e-03
1 23 6.546883657738e-04
1 24 8.559986674525e-05
1 25 2.818261610220e-04
1 26 1.408749865525e-04
1 27 -1.023594898235e-04
1 28 2.038286040871e-04
1 29 -9.456665167890e-05
1 30 -6.796076486759e-05
1 31 1.010057703852e-03
1 32 -4.246104674134e-05
1 33 -1.572164891214e-04
1 34 -1.133793851800e-04
1 35 -2.000547282994e-04
1 36 2.835835208448e-05
1 37 -3.350326469126e-06
1 38 2.739039874597e-05
1 39 9.132080004271e-05
1 40 -2.487578108243e-04
1 41 6.479533484287e-04
1 42 3.148571503758e-05
1 43 -3.683214303918e-05
1 44 9.690646908918e-06
1 45 -2.349159150638e-05
1 46 3.225693319096e-04
1 47 -1.829241740982e-05
1 48 -2.309036045370e-06
1 49 -4.984193103874e-04
