%%MatrixMarket matrix coordinate real general
1 29 29
1 1 8.231581225200e-01
1 2 3.228766353793e-01
1 3 1.181284948960e-02
1 4 -1.256704323164e-02
1 5 1.497169470968e-05
1 6 -6.251331602042e-05
1 7 -2.527367992003e-04
1 8 -3.926997155143e-05
1 9 1.579919718177e-05
1 10 -5.966372856729e-05
1 11 6.804002784329e-05
1 12 -5.064920762337e-05
1 13 -7.136698843161e-05
1 14 -3.022739598311e-06
1 15 -5.058870418571e-05
1 16 2.591086458698e-05
1 17 -4.446893850335e-05
1 18 2.817044881690e-05
1 19 -6.144091911952e-05
1 20 -6.739396272148e-05
1 21 -5.534114997217e-07
1 22 1.451935310699e-05
1 23 -1.348088166672e-04
1 24 -4.476041002241e-07
1 25 1.295806242514e-06
1 26 2.038431521373e-06
1 27 5.448285381758e-05
1 28 1.917454109450e-05
1 29 3.385822961808e-05
